87

C -0.582922 -1.874169 0.754644
C -0.253885 -0.892153 -0.095584
C 0.675028 0.244252 0.304071
C -0.124378 1.573921 0.528279
O -1.521593 1.320850 0.478639
C -2.215314 1.859125 1.583271
O -2.189625 3.278718 1.509148
C -2.868401 3.899209 2.595582
C -2.049924 3.843173 3.901012
O -2.585754 4.734858 4.841376
C -4.342633 3.427524 2.742900
O -5.095229 3.986429 1.694035
C -4.464625 1.892493 2.693001
O -4.016859 1.336130 3.903164
C -3.654975 1.344846 1.503058
O -3.642926 -0.076790 1.534532
C -4.465467 -0.626379 0.519620
O -3.836575 -0.415712 -0.751237
C -3.758687 -1.564178 -1.580543
C -3.252694 -1.152366 -2.975583
O -4.062525 -0.154129 -3.546076
C -5.104441 -2.332606 -1.651767
O -6.106579 -1.572965 -2.283974
C -5.572397 -2.780707 -0.242175
O -5.445790 -4.173907 -0.111599
C -4.754861 -2.109393 0.873464
O -5.470331 -2.201618 2.080788
O 0.159761 2.583265 -0.441075
C 0.749554 2.333465 -1.678259
C 1.528256 1.268882 -1.865344
C 2.353650 1.155013 -3.077018
O 2.095617 1.823114 -4.116699
N 3.527536 0.347083 -3.017162
C 4.850824 0.969668 -3.104682
C 5.683550 0.133244 -2.200812
C 4.943588 -0.893066 -1.672027
N 5.509381 -1.862069 -0.904788
C 6.839918 -1.797316 -0.593450
C 7.429315 -2.788084 0.208609
C 8.794732 -2.741156 0.502950
O 9.360722 -3.741970 1.289743
C 9.583881 -1.696304 0.005187
C 9.013629 -0.697970 -0.789029
C 7.643835 -0.734685 -1.101422
C 7.045210 0.242461 -1.928694
O 7.718371 1.185750 -2.428642
C 3.566114 -0.890709 -2.224309
C 2.453463 -0.971526 -1.146971
C 1.879499 0.399588 -0.684230
H -1.251993 -2.667617 0.435485
H -0.183582 -1.903449 1.764633
H -0.685285 -0.891289 -1.089862
H 1.124067 -0.027995 1.287967
H 0.207410 1.985678 1.512520
H -1.753138 1.492547 2.530430
H -2.919462 4.981904 2.337806
H -2.036753 2.821440 4.330955
H -0.999338 4.134617 3.676294
H -2.018169 4.665089 5.652827
H -4.746858 3.798114 3.717515
H -6.051747 3.952399 1.972669
H -5.538832 1.628334 2.549586
H -4.403369 0.424959 3.965478
H -4.094906 1.762349 0.558045
H -5.453633 -0.104640 0.506926
H -2.985545 -2.251633 -1.172947
H -3.255537 -2.036349 -3.643306
H -2.199049 -0.801550 -2.906584
H -3.810948 0.700497 -3.102156
H -4.944965 -3.233580 -2.282753
H -6.164549 -0.696699 -1.828394
H -6.642142 -2.493741 -0.101832
H -6.200461 -4.580442 -0.613438
H -3.781056 -2.646490 0.984573
H -4.844216 -1.908554 2.799087
H 0.612120 3.060404 -2.462904
H 4.825009 2.020643 -2.737919
H 5.228909 0.917676 -4.145884
H 4.925059 -2.663085 -0.575096
H 6.825991 -3.600810 0.597827
H 10.353353 -3.762808 1.489379
H 10.642927 -1.654851 0.230145
H 9.645327 0.101890 -1.156519
H 3.466356 -1.756342 -2.914828
H 1.642308 -1.578218 -1.608000
H 2.809106 -1.540093 -0.258179
H 2.691547 0.925708 -0.133470
