56

C -1.477900 -3.472976 2.134174
O -1.117162 -2.233288 1.538656
C -1.297017 -1.968768 0.175596
O -1.763647 -2.866211 -0.579996
C -0.868586 -0.605709 -0.372535
C -1.369133 -0.381517 -1.848463
C -2.513520 0.659790 -1.885293
C -3.618346 0.251602 -0.877661
C -3.072270 0.280141 0.591416
C -3.789727 1.350174 1.469443
C -5.251239 0.974398 1.761309
O -3.108504 1.546845 2.684083
C -1.520580 0.510838 0.531879
N -1.334619 1.856950 -0.065411
C -0.034002 2.505169 0.162888
C 1.099482 1.975669 -0.720718
C 1.490628 0.565122 -0.402530
C 0.662929 -0.566309 -0.314526
N 1.436334 -1.685961 -0.258999
C 2.712459 -1.278763 -0.295521
C 3.848833 -2.083926 -0.291623
C 5.102906 -1.457753 -0.388168
C 5.197236 -0.043776 -0.498886
O 6.429178 0.618302 -0.604602
C 7.694132 -0.035063 -0.610750
C 4.022105 0.732766 -0.507116
C 2.790362 0.081082 -0.392654
C -1.927771 2.006017 -1.419716
H -1.243626 -3.438211 3.217776
H -2.566424 -3.652619 2.006462
H -0.902374 -4.300185 1.667371
H -0.540508 -0.012505 -2.493295
H -1.717677 -1.312466 -2.340419
H -2.930477 0.747904 -2.912185
H -3.978555 -0.771455 -1.123232
H -4.481972 0.937010 -1.010811
H -3.283761 -0.701391 1.067584
H -3.793919 2.321357 0.929211
H -5.710236 1.744534 2.416856
H -5.846938 0.921258 0.827482
H -5.306814 -0.007417 2.278086
H -3.094396 0.676679 3.163181
H -1.089945 0.472903 1.557495
H -0.147761 3.593599 -0.032181
H 0.253454 2.410266 1.233141
H 0.872884 2.050497 -1.800655
H 1.968325 2.643336 -0.548523
H 1.123958 -2.682137 -0.231052
H 3.769647 -3.161230 -0.222278
H 5.989797 -2.076220 -0.383659
H 7.761188 -0.729128 -1.475043
H 8.495092 0.726601 -0.703935
H 7.841171 -0.591368 0.339059
H 4.085104 1.808339 -0.599286
H -2.739672 2.762981 -1.370074
H -1.208127 2.384225 -2.171355
