49

C -1.568033 3.839838 -0.841742
C -1.726369 2.383490 -0.497594
C -0.913790 1.469254 -1.051751
C -1.011895 0.001728 -0.709978
O -0.295513 -0.244406 0.490383
C 1.059193 -0.575649 0.242866
O 1.767134 0.583656 -0.155211
C 3.021772 0.227887 -0.715487
C 3.794258 1.515584 -1.031080
O 3.035281 2.349868 -1.863429
C 3.855801 -0.712736 0.219035
O 3.943507 -1.991933 -0.355850
C 3.218631 -0.845616 1.620843
O 3.488033 0.295891 2.401470
C 1.696592 -1.152350 1.534798
O 1.024191 -0.729703 2.697825
C -2.500559 -0.381906 -0.515197
C -2.722015 -1.921331 -0.339630
C -4.168007 -2.317595 -0.681117
C -2.354399 -2.474766 1.049254
C -3.123155 0.485287 0.603566
C -2.865731 1.946647 0.348895
O -3.616866 2.804210 0.888079
H -1.700724 4.465064 0.066240
H -2.334384 4.126433 -1.592175
H -0.561548 4.053703 -1.257443
H -0.133530 1.780314 -1.736173
H -0.624683 -0.581806 -1.578584
H 1.118413 -1.377447 -0.537738
H 2.847152 -0.278015 -1.692939
H 4.012102 2.063610 -0.090344
H 4.766285 1.271809 -1.517961
H 3.085717 1.965550 -2.777999
H 4.891081 -0.318723 0.361928
H 4.604318 -1.926974 -1.093497
H 3.705609 -1.700686 2.139417
H 3.091112 1.082084 1.947296
H 1.578811 -2.258548 1.482449
H 0.983528 0.263620 2.685256
H -3.013486 -0.099851 -1.465688
H -2.074523 -2.442491 -1.078658
H -4.433481 -1.980254 -1.705676
H -4.881739 -1.874004 0.042972
H -4.279395 -3.423346 -0.651001
H -1.293022 -2.282573 1.295482
H -2.999255 -2.043737 1.841716
H -2.490991 -3.578815 1.063264
H -2.682345 0.226852 1.587229
H -4.219089 0.312883 0.650941
