58

C -0.679883 -2.402917 -1.739461
C 0.019886 -2.495123 -0.382087
C -0.035038 -1.269713 0.616963
C -1.429467 -1.164915 1.248915
C -2.462370 -0.592110 0.283461
C -3.876025 -0.977206 0.501532
O -4.721227 -0.857425 -0.435695
O -4.273829 -1.460390 1.754479
C -5.632665 -1.640899 2.098863
C -2.133637 0.414159 -0.576320
N -3.045118 1.514320 -0.731983
C -2.262073 2.660746 -0.433137
C -2.749899 3.947908 -0.180161
C -1.837459 4.951515 0.184637
C -0.464883 4.653939 0.298252
C 0.000302 3.349608 0.049917
C -0.927440 2.355682 -0.292312
C -0.698498 0.922724 -0.732230
C -0.099064 0.998075 -2.145742
C 1.406395 0.798678 -1.906473
N 1.493865 -0.138910 -0.787358
C 2.713336 -0.214082 0.048634
C 3.901851 -0.719052 -0.793397
C 5.204687 -0.581241 -0.033157
C 5.960125 -1.780710 0.462101
O 5.656466 0.537373 0.183235
C 2.479318 -1.197732 1.269349
O 1.746687 -0.568853 2.302338
C 1.079578 -1.632175 1.658917
C 0.343214 0.119680 0.058284
H -1.691415 -1.970992 -1.691015
H -0.790508 -3.430821 -2.147265
H -0.040932 -1.853674 -2.456570
H -0.375940 -3.401328 0.139323
H 1.082321 -2.746062 -0.613737
H -1.754405 -2.169300 1.605268
H -1.386013 -0.504062 2.143607
H -6.170466 -0.670999 2.018860
H -5.696551 -1.999808 3.146772
H -6.106163 -2.388843 1.429471
H -4.075375 1.492167 -0.595856
H -3.808582 4.165330 -0.256628
H -2.192129 5.959587 0.378172
H 0.234377 5.432863 0.573505
H 1.056691 3.125705 0.129536
H -0.285575 1.966105 -2.668026
H -0.512615 0.207433 -2.798875
H 1.899905 1.765297 -1.652094
H 1.880564 0.364210 -2.814293
H 2.956860 0.800758 0.438944
H 3.991256 -0.136225 -1.733135
H 3.713560 -1.777544 -1.075775
H 6.989991 -1.798072 0.028183
H 6.020397 -1.721039 1.569247
H 5.432892 -2.725657 0.182695
H 3.330924 -1.761582 1.695510
H 1.013359 -2.551366 2.272856
H 0.606436 0.796962 0.900957
