48

C -5.043570 1.057743 -0.219249
C -4.176387 0.778404 0.972353
C -2.856394 0.520538 0.886932
C -2.035368 0.230301 2.115208
N -0.617450 -0.067005 1.732810
C 0.118421 -0.325453 3.001430
C -0.032150 1.115103 1.001679
C -0.924513 1.496221 -0.223211
C -2.061009 0.468381 -0.390274
C -1.480357 -0.971876 -0.481669
C -0.828104 -1.240871 -1.862316
O -1.709758 -0.926349 -2.907551
C -0.586443 -1.264339 0.804702
C 0.883359 -1.706446 0.488432
C 1.724986 -0.506722 0.186925
C 1.350322 0.783725 0.499179
N 2.316019 1.670382 0.168563
C 3.324175 0.922517 -0.322987
C 4.558203 1.371115 -0.790981
C 5.473630 0.409522 -1.258468
C 5.139741 -0.963864 -1.248748
C 3.886147 -1.390532 -0.773440
C 3.000932 -0.415345 -0.319629
H -4.686746 1.968182 -0.745249
H -5.029968 0.190200 -0.912317
H -6.089011 1.228646 0.112431
H -4.648499 0.783038 1.951163
H -2.486360 -0.636113 2.651560
H -2.085385 1.118064 2.786803
H -0.249371 -1.255152 3.489528
H 1.211738 -0.430758 2.848880
H -0.012699 0.516278 3.717709
H 0.042450 1.992428 1.684411
H -1.366297 2.504145 -0.057121
H -0.343843 1.568360 -1.169453
H -2.671229 0.721291 -1.281697
H -2.349051 -1.669411 -0.434174
H -0.543716 -2.312916 -1.948511
H 0.088086 -0.630183 -1.989216
H -2.411352 -1.628934 -2.911384
H -1.052081 -2.133563 1.325518
H 1.313273 -2.218242 1.375093
H 0.942763 -2.446711 -0.331674
H 2.281978 2.709732 0.264425
H 4.806752 2.424484 -0.793161
H 6.441006 0.724477 -1.627439
H 5.853001 -1.692874 -1.610590
H 3.620130 -2.439617 -0.764447
