49

C -2.422966 -2.029958 1.732933
C -1.889395 -0.615627 1.461973
C -1.304384 -0.355534 0.022898
C -2.495435 -0.385257 -1.019214
C -2.653391 0.862428 -1.914203
C -1.328398 1.516917 -2.354796
N -0.241917 1.406764 -1.355026
C 0.642404 2.574588 -1.281039
C 1.341875 2.513786 0.077602
C 0.629238 1.403631 0.868240
C 1.568301 0.254183 1.247596
C 1.619222 -0.144981 2.600937
C 2.476890 -1.163247 3.020775
C 3.310987 -1.797904 2.103889
C 3.285002 -1.420874 0.762561
C 2.416833 -0.412335 0.322524
N 2.416821 -0.081895 -1.063284
C 1.492376 -0.610112 -2.023841
O 1.637835 -0.276306 -3.230617
C 0.397482 -1.600589 -1.703344
C -0.321899 -1.546132 -0.329798
C -0.651448 1.099462 0.013222
O -1.635049 2.055710 0.385466
H -1.586287 -2.749945 1.850999
H -3.097535 -2.370807 0.920755
H -2.996883 -2.030210 2.683758
H -2.737598 0.075371 1.654510
H -1.120595 -0.397755 2.230059
H -3.470723 -0.514476 -0.501637
H -2.437040 -1.272171 -1.684213
H -3.239657 0.589765 -2.818875
H -3.268469 1.616774 -1.377231
H -1.538663 2.576650 -2.620229
H -0.984362 1.016462 -3.284666
H 0.064295 3.523855 -1.351087
H 1.384612 2.538773 -2.106953
H 1.226757 3.491739 0.596570
H 2.431816 2.335038 -0.039286
H 0.315068 1.874575 1.826517
H 0.993418 0.334938 3.343014
H 2.498613 -1.456070 4.062568
H 3.978508 -2.583850 2.432743
H 3.933735 -1.923623 0.056122
H 3.232126 0.464332 -1.422127
H -0.362760 -1.547082 -2.510157
H 0.857486 -2.608300 -1.794478
H -0.945628 -2.465372 -0.357856
H 0.357840 -1.795633 0.500106
H -1.779061 2.030301 1.365623
