81

C -4.075051 -0.166480 -3.047473
C -4.575859 0.311976 -1.892237
C -5.255878 1.663339 -1.927671
C -4.668048 -0.624743 -0.684402
C -5.811369 -0.301873 0.284264
C -5.202314 0.469370 1.450584
C -3.700084 0.073854 1.543646
C -3.499232 -0.827230 2.763884
O -2.439321 -0.771995 3.450776
O -4.455376 -1.797494 3.071009
C -2.837113 1.361609 1.680524
C -1.371842 1.201364 1.242187
C -1.181042 0.680165 -0.223676
C -1.830855 1.734746 -1.173733
C -1.960885 -0.698769 -0.367885
C -1.169570 -1.896295 0.236274
C 0.279730 -1.990248 -0.219180
C 1.034686 -0.699588 0.158230
C 2.630404 -0.875225 0.234568
C 2.919341 -1.682461 1.554221
C 3.164019 -1.729417 -0.965206
C 4.689511 -1.783300 -1.094304
C 5.307503 -0.379665 -1.127533
O 6.698058 -0.454293 -1.345067
C 4.962067 0.471685 0.133607
C 5.661753 -0.084772 1.410185
C 5.566954 1.890566 -0.072024
C 3.377666 0.532069 0.334268
C 2.714118 1.610853 -0.558581
C 1.223514 1.770309 -0.259579
C 0.395329 0.512551 -0.629239
C 0.497242 0.330926 -2.185921
C -3.424168 -0.741235 0.241234
H -4.067985 0.440413 -3.949605
H -3.676340 -1.174037 -3.113142
H -5.249593 2.139773 -0.931359
H -6.304962 1.544786 -2.268390
H -4.736453 2.351480 -2.627097
H -4.899288 -1.634953 -1.104298
H -6.656108 0.247672 -0.184368
H -6.225579 -1.256152 0.679151
H -5.349234 1.554719 1.264814
H -5.768123 0.256305 2.383628
H -4.322646 -2.430118 3.850198
H -2.848535 1.697748 2.741642
H -3.282604 2.220058 1.141601
H -0.925865 2.209484 1.349004
H -0.873019 0.549842 1.980068
H -1.886804 1.383140 -2.221427
H -2.862517 1.970619 -0.899596
H -1.291891 2.700936 -1.147327
H -2.049779 -0.931756 -1.446041
H -1.194970 -1.848172 1.347525
H -1.664931 -2.848304 -0.061498
H 0.720098 -2.883818 0.266890
H 0.328268 -2.193756 -1.307135
H 0.779646 -0.500620 1.216272
H 3.802405 -2.339152 1.482662
H 2.100441 -2.372933 1.830888
H 3.041157 -1.016545 2.433279
H 2.807258 -2.778234 -0.872141
H 2.779042 -1.375593 -1.927626
H 4.934909 -2.297450 -2.050345
H 5.138680 -2.406264 -0.295225
H 4.878689 0.133003 -2.018296
H 7.088054 -1.055821 -0.659144
H 5.234796 0.376342 2.327136
H 6.747405 0.144133 1.414958
H 5.599303 -1.179488 1.509558
H 5.260381 2.570080 0.751824
H 6.677536 1.860522 -0.084904
H 5.266030 2.334004 -1.044528
H 3.209022 0.923590 1.363204
H 2.912319 1.423609 -1.629677
H 3.146798 2.605041 -0.331106
H 0.864125 2.663717 -0.811143
H 1.143821 1.993782 0.824952
H -0.197206 -0.434756 -2.577595
H 0.276962 1.282675 -2.712249
H 1.494517 0.074751 -2.548791
H -3.561115 -1.804600 0.553700
