57

C 4.786636 -0.025297 -2.495772
O 3.708125 -0.263257 -1.599978
C 2.755530 0.711443 -1.290067
O 2.803978 1.844151 -1.841730
N 1.702376 0.407702 -0.363920
C 1.738542 -0.526303 0.729584
C 2.865065 -0.938701 1.459107
O 4.148417 -0.570263 1.031964
C 5.353806 -0.932085 1.696655
C 2.648467 -1.693561 2.636100
C 1.342966 -1.959191 3.089866
C 0.232031 -1.487903 2.378613
C 0.455252 -0.772227 1.201828
C -0.508843 -0.202379 0.187562
C -0.841899 -1.410759 -0.741319
C -1.975276 -2.102747 0.052103
N -2.647820 -1.039097 0.835928
C -4.124725 -0.976009 0.670676
C -4.670099 0.468790 0.647928
C -3.997083 1.364437 -0.421991
C -2.558656 0.901978 -0.784853
C -1.679564 2.112529 -1.239970
C -0.204407 1.704665 -1.534477
C 0.373920 1.023072 -0.276785
C 0.505528 2.129824 0.790636
O 0.098029 1.962783 1.972293
O 1.170178 3.312427 0.473677
C -2.628559 -0.067899 -2.021226
C -1.442188 -0.986265 -2.050573
O -1.026757 -1.438201 -3.106755
C -1.937072 0.213421 0.513824
H 5.403735 -0.943660 -2.574528
H 4.395100 0.233558 -3.502299
H 5.421097 0.802609 -2.114331
H 6.214860 -0.511436 1.138059
H 5.360926 -0.517716 2.726860
H 5.455606 -2.037426 1.727343
H 3.480437 -2.053000 3.225821
H 1.195571 -2.521467 4.002804
H -0.769298 -1.675289 2.741144
H 0.016518 -2.099873 -0.917910
H -1.540924 -2.845146 0.753388
H -2.665044 -2.674589 -0.609339
H -4.587329 -1.503895 1.531160
H -4.481468 -1.508777 -0.233828
H -4.504881 0.918125 1.652043
H -5.767953 0.447043 0.476173
H -3.977108 2.402343 -0.022866
H -4.634966 1.398782 -1.332967
H -2.111114 2.584548 -2.149730
H -1.695353 2.898407 -0.453837
H -0.110064 1.067665 -2.433156
H 0.362269 2.625756 -1.787177
H 1.295268 4.041119 1.166034
H -3.542621 -0.690765 -2.020128
H -2.677463 0.502888 -2.975027
H -1.981702 0.895121 1.387364
