131

C -9.065931 2.416658 -0.592533
C -7.746044 2.155987 0.076216
C -7.443956 1.009649 0.734776
C -8.445880 -0.128068 0.864975
O -8.799399 -0.596227 -0.425597
C -10.111778 -1.133976 -0.469620
O -10.828067 -0.421952 -1.457578
C -12.190828 -0.791094 -1.460787
C -12.930002 0.153104 -2.415596
O -14.324211 0.016012 -2.286369
C -12.355414 -2.280204 -1.885567
O -13.698636 -2.702183 -1.817109
C -11.442601 -3.224549 -1.059934
O -12.022175 -3.568990 0.174775
C -10.024808 -2.620501 -0.849525
O -9.224223 -2.779674 -1.998913
O -7.898712 -1.214865 1.616308
C -6.988649 -1.030272 2.654841
C -6.154965 0.021286 2.639930
C -5.282841 0.292199 3.805312
O -4.521398 1.303724 3.801636
O -5.343292 -0.506500 4.946181
C -5.729649 0.039426 6.196648
C -6.081894 0.887729 1.393204
C -5.031283 0.339730 0.393060
C -3.800442 1.182160 0.354756
O -3.899421 2.423627 0.102850
O -2.553863 0.630158 0.666306
C -1.382334 1.407152 0.859103
C -0.130140 0.683458 0.297732
C 1.113877 1.254903 1.005260
C -0.035520 0.877787 -1.245572
C -1.266899 0.377701 -1.984580
C -0.866600 0.305459 -3.448655
O -1.437368 -0.823748 -4.064608
C 0.670681 0.232344 -3.479180
C 1.270180 1.416242 -4.256183
C 1.155154 0.238069 -1.998289
C 1.537288 -1.206772 -1.552862
O 2.643444 -1.217621 -0.644681
C 3.969009 -0.962661 -1.045171
O 4.208870 -0.401307 -2.151434
C 5.113202 -1.508661 -0.230470
C 6.143720 -0.457337 0.269842
C 6.819878 0.246562 -0.898019
C 6.353410 1.574371 -1.352158
O 5.356631 2.129688 -0.795201
O 7.052515 2.241497 -2.364069
C 6.770581 3.590458 -2.740519
C 7.887046 -0.315548 -1.499774
O 8.583780 -1.393681 -0.927642
C 8.270019 -1.945605 0.353804
O 9.449627 -2.260396 1.097505
C 10.383324 -1.237946 1.454319
O 11.460066 -1.195853 0.535400
C 12.625750 -0.596444 1.082862
C 13.361264 0.159450 -0.040774
O 13.554110 -0.664696 -1.157869
C 12.416825 0.348992 2.312330
O 12.463946 -0.376537 3.514944
C 11.077637 1.117376 2.220402
O 10.764166 1.729767 3.448282
C 9.896162 0.210877 1.775173
O 9.263502 0.812353 0.679392
C 7.198223 -1.166891 1.112525
C 7.034655 -1.376685 2.445067
C 5.915376 -0.779927 3.247818
H -9.091407 3.463877 -0.965215
H -9.202656 1.736497 -1.455652
H -9.905446 2.279500 0.135957
H -7.008200 2.950101 0.036514
H -9.290795 0.296714 1.443696
H -10.646984 -1.066885 0.515066
H -12.623639 -0.620216 -0.440640
H -12.586222 -0.013695 -3.461192
H -12.668720 1.194711 -2.146992
H -14.653546 -0.384715 -3.135640
H -12.041445 -2.354167 -2.952209
H -14.082475 -2.379954 -0.958900
H -11.344257 -4.175980 -1.629134
H -12.261198 -2.725918 0.647806
H -9.536616 -3.171522 -0.020764
H -9.754361 -2.543145 -2.798557
H -6.979003 -1.748813 3.466416
H -5.549467 -0.706704 6.999192
H -6.816145 0.289092 6.175185
H -5.143150 0.956155 6.418443
H -5.789942 1.904420 1.727852
H -4.738755 -0.701644 0.658835
H -5.452396 0.279472 -0.622883
H -1.464251 2.417382 0.395663
H -1.273229 1.554332 1.962150
H -0.210678 -0.400052 0.547999
H 1.136434 2.362939 0.926234
H 1.094208 0.976012 2.077754
H 2.051014 0.850038 0.573552
H 0.032560 1.976524 -1.430244
H -2.121508 1.079187 -1.859140
H -1.558431 -0.626960 -1.605929
H -1.230738 1.237544 -3.964250
H -2.398685 -0.620139 -4.199058
H 0.980550 -0.683949 -4.028823
H 0.883991 1.419920 -5.299576
H 2.373890 1.315866 -4.292470
H 1.003461 2.383950 -3.770937
H 2.037338 0.892855 -1.891454
H 0.673979 -1.720519 -1.090700
H 1.827041 -1.850650 -2.416432
H 5.641924 -2.259016 -0.861572
H 4.689569 -2.055025 0.636826
H 5.616078 0.294939 0.889705
H 5.740301 3.668640 -3.136591
H 7.489868 3.908011 -3.510274
H 6.887791 4.254647 -1.850961
H 8.306071 0.107445 -2.402957
H 7.783566 -2.927122 0.145755
H 10.758617 -1.625749 2.419200
H 13.309934 -1.418337 1.404209
H 14.353276 0.537142 0.327693
H 12.746752 1.022702 -0.346558
H 14.168289 -1.395903 -0.871051
H 13.223158 1.114952 2.345644
H 13.395477 -0.712071 3.610858
H 11.230275 1.925175 1.466057
H 11.571012 2.234202 3.751968
H 9.155344 0.149291 2.596695
H 9.908141 0.801953 -0.086516
H 7.736794 -2.011352 2.980072
H 5.984919 0.332787 3.230872
H 4.925099 -1.084339 2.836818
H 5.982923 -1.123017 4.299469
