43

C 3.497321 0.372287 -1.942624
C 2.904288 0.808364 -0.637066
C 2.101515 0.056335 0.148375
C 1.766526 -1.381936 -0.153505
O 2.316496 -1.988843 -1.111619
N 0.817210 -2.093878 0.673404
C -0.040867 -3.137444 0.050996
C -1.560745 -2.907828 0.330075
C -1.832799 -1.442123 0.574597
C -0.936467 -0.684943 1.306480
N -0.889364 0.601392 0.862516
C -1.881134 0.685659 -0.075296
C -2.304284 1.778146 -0.855075
C -3.276526 1.563973 -1.847646
C -3.806323 0.280398 -2.068709
C -3.384151 -0.801312 -1.285652
C -2.448080 -0.558713 -0.279984
C 0.227564 1.506618 1.253864
C 0.420540 2.744977 0.359629
O 1.579777 3.442077 0.726705
C 1.553096 0.682001 1.438293
C 1.278000 -0.429884 2.452807
C 0.263962 -1.397982 1.840253
H 4.054232 1.218115 -2.397754
H 4.212551 -0.461168 -1.781911
H 2.694750 0.068386 -2.647228
H 3.148730 1.815298 -0.328207
H 0.097346 -3.144074 -1.052310
H 0.264273 -4.135930 0.429405
H -1.846981 -3.467968 1.245896
H -2.171106 -3.299542 -0.510631
H -1.948670 2.779330 -0.725676
H -3.616846 2.394187 -2.453166
H -4.544311 0.127859 -2.845482
H -3.789030 -1.790756 -1.452656
H -0.030878 1.913318 2.257875
H -0.427525 3.437817 0.532362
H 0.479195 2.442456 -0.709843
H 1.673791 4.185838 0.076151
H 2.331447 1.336349 1.891313
H 0.876129 -0.006075 3.399773
H 2.218139 -0.971684 2.698972
H -0.040791 -2.139093 2.612299
