106

C -2.503639 3.418623 -1.782632
C -2.966005 4.023559 -0.454081
C -4.128400 3.263944 0.241357
C -5.475931 3.356741 -0.579488
N -5.903549 2.056610 -1.195211
C -7.199381 2.204636 -1.873968
C -5.878268 0.831868 -0.318631
C -5.098928 -0.286192 -1.097513
C -4.289316 -1.319009 -0.290281
C -3.111303 -1.235116 0.552318
N -2.795951 -2.488690 0.967900
C -3.704391 -3.333245 0.475721
C -3.762649 -4.710422 0.692665
C -4.816532 -5.425947 0.103671
C -5.778230 -4.756692 -0.678780
C -5.689967 -3.367658 -0.882057
C -4.625429 -2.673737 -0.286591
C -2.162355 -0.091699 1.021227
C -0.846992 -0.079091 0.243395
C 0.357802 0.017327 0.986469
C 1.574250 0.011278 0.307320
C 2.884196 0.023837 0.764821
C 3.683002 -0.075458 -0.383315
N 2.894341 -0.116816 -1.486020
C 1.625823 -0.068212 -1.052302
C 0.477754 -0.134665 -1.830271
C -0.783204 -0.137115 -1.184608
O -1.967144 -0.207921 -1.931290
C -2.020224 -0.274321 -3.353970
C 5.205170 -0.181850 -0.481405
C 5.512169 -1.517846 -1.144430
O 4.915493 -2.558505 -0.746404
O 6.497977 -1.621376 -2.132079
C 6.843805 -2.857497 -2.743532
C 5.720623 1.044736 -1.330747
C 6.537428 2.004036 -0.442048
C 7.823479 1.270484 0.002562
C 7.469443 -0.074265 0.713603
C 8.260111 -0.216228 2.036936
C 8.154491 -1.613731 2.651825
C 5.922568 -0.144093 0.923349
N 5.552363 1.095302 1.650242
C 4.360663 1.066123 2.527259
C 3.326765 -0.019730 2.197426
C 5.691454 2.315352 0.815615
C -2.644477 1.361761 1.380603
C -3.845650 1.778282 0.566369
C -5.207488 1.162821 1.018151
C -5.290042 0.070590 2.074519
O -4.712266 0.217413 3.185205
O -6.136368 -1.026149 1.877904
C -6.288540 -2.063268 2.839492
H -1.863092 4.151324 -2.317222
H -1.893885 2.510396 -1.601320
H -3.368272 3.164263 -2.431576
H -3.294287 5.068506 -0.640846
H -2.095070 4.098839 0.230260
H -4.292006 3.785556 1.211488
H -5.384913 4.128000 -1.375978
H -6.278260 3.724719 0.098985
H -7.457742 1.269171 -2.414848
H -7.147465 3.017049 -2.629166
H -8.004689 2.435831 -1.142944
H -6.912407 0.472247 -0.102377
H -4.433544 0.163655 -1.856684
H -5.845662 -0.796413 -1.734630
H -1.991928 -2.755284 1.579357
H -3.022418 -5.212500 1.303377
H -4.892548 -6.495539 0.255589
H -6.591976 -5.316216 -1.122482
H -6.446159 -2.872910 -1.473492
H -1.882309 -0.457235 2.035543
H 0.337845 0.081520 2.066009
H 3.208479 -0.206021 -2.477836
H 0.570504 -0.197138 -2.905286
H -3.075092 -0.347267 -3.683118
H -1.575174 0.642902 -3.793138
H -1.481168 -1.174564 -3.712269
H 7.659825 -2.687330 -3.473219
H 5.966783 -3.277294 -3.276642
H 7.193472 -3.576391 -1.973847
H 4.881856 1.622619 -1.779759
H 6.352283 0.742436 -2.191093
H 6.787620 2.936557 -0.994467
H 8.400583 1.945000 0.672696
H 8.467190 1.068485 -0.881524
H 7.789591 -0.907682 0.053369
H 9.336333 -0.022671 1.831544
H 7.917661 0.537991 2.778533
H 8.891475 -1.708131 3.478369
H 8.376485 -2.393912 1.890958
H 7.142807 -1.784122 3.077190
H 5.680240 -1.053931 1.507983
H 4.709299 0.891506 3.566574
H 3.847773 2.053490 2.541621
H 3.709405 -1.032724 2.438685
H 2.457195 0.138610 2.867020
H 4.696923 2.703511 0.500648
H 6.191461 3.105606 1.415196
H -2.848161 1.482838 2.462713
H -1.811701 2.067958 1.190392
H -3.520205 1.418245 -0.419049
H -5.823003 1.949942 1.508837
H -5.303662 -2.521862 3.065172
H -6.960539 -2.845017 2.429309
H -6.734305 -1.655396 3.769239
