64

C -3.500079 -3.218380 1.172185
C -3.023672 -2.045883 2.035383
C -2.674914 -0.716718 1.297697
C -3.387735 -0.444710 -0.061533
C -2.411624 0.274262 -1.023776
C -1.265572 -0.721601 -1.331104
C -0.435720 -1.056453 -0.027991
C -0.379166 -2.567560 0.187094
O -0.402721 -3.355843 -0.799879
O -0.121331 -3.072740 1.466644
C 0.027189 -4.462330 1.729246
C 1.032691 -0.568788 -0.108444
N 2.004486 -1.346696 0.283145
C 3.226311 -0.676533 0.075721
C 4.500310 -1.178046 0.326654
C 5.605850 -0.367463 0.021160
C 5.416568 0.926115 -0.533354
O 6.490201 1.768922 -0.855436
C 7.860280 1.431220 -0.665594
C 4.109867 1.390398 -0.772921
C 3.030366 0.560841 -0.454511
C 1.553437 0.802914 -0.591959
O 1.244460 0.996916 -1.949509
C 1.139174 2.038529 0.270787
C 0.097116 1.804992 1.374542
N -1.133887 1.107341 0.951924
C -1.781489 1.521012 -0.328646
C -2.800625 2.642807 -0.043621
C -3.440630 3.166209 -1.302474
C -4.915793 3.019850 -1.523001
O -2.755414 3.729687 -2.142603
C -1.150765 -0.356580 1.183467
H -4.538301 -3.038692 0.821168
H -3.506012 -4.145488 1.783246
H -2.846837 -3.384394 0.296347
H -2.167365 -2.371283 2.659109
H -3.842334 -1.841892 2.761478
H -3.078986 0.060364 1.989382
H -3.741101 -1.367560 -0.559377
H -4.296947 0.172434 0.099402
H -2.929861 0.551417 -1.967403
H -1.733161 -1.627874 -1.772762
H -0.639224 -0.331670 -2.150502
H 0.897386 -4.863833 1.167480
H 0.200387 -4.610663 2.814907
H -0.895339 -5.006016 1.435992
H 4.635372 -2.168049 0.742607
H 6.597739 -0.752155 0.214027
H 8.062005 1.245851 0.410704
H 8.492490 2.276836 -1.005453
H 8.117955 0.531585 -1.263495
H 3.942647 2.374557 -1.191407
H 1.705949 1.820856 -2.257254
H 2.029683 2.467606 0.782813
H 0.799354 2.870682 -0.381814
H -0.192933 2.795272 1.785699
H 0.585538 1.265906 2.215704
H -1.046285 1.931327 -1.044922
H -2.276980 3.488469 0.451797
H -3.576086 2.289610 0.668100
H -5.213227 3.461557 -2.498132
H -5.467034 3.538982 -0.711595
H -5.190289 1.944427 -1.520319
H -0.645367 -0.603861 2.143947
