67

C 0.589403 1.164556 3.937396
C 0.586861 0.575900 2.738112
C 0.659682 1.381714 1.460333
C 2.116984 1.476868 0.976166
O 2.625545 0.171620 0.753431
C 4.028944 0.165496 0.544972
O 4.557171 -0.947331 1.247693
C 5.974240 -0.977113 1.169268
C 6.485799 -2.090886 2.096351
O 5.942497 -3.333402 1.734709
C 6.434610 -1.190268 -0.295624
O 7.837210 -1.129628 -0.378772
C 5.838052 -0.090788 -1.186358
O 6.121129 -0.370694 -2.533461
C 4.316260 0.013910 -0.963258
O 3.663490 -1.132976 -1.450978
O 2.154597 2.227553 -0.238319
C 1.154988 2.134706 -1.216284
C 0.005713 1.473499 -0.982511
C -1.059958 1.411623 -2.013157
O -0.852207 1.903193 -3.158158
N -2.349122 0.834911 -1.700759
C -3.457138 1.063456 -2.663961
C -4.681334 0.158879 -2.443580
C -4.973274 0.055526 -0.991274
C -3.980713 0.020724 -0.040501
N -4.484230 -0.326556 1.169348
C -5.805202 -0.497334 0.970485
C -6.753405 -0.901853 1.908579
C -8.075919 -1.091830 1.468051
C -8.418811 -0.891056 0.109987
O -9.731821 -1.102204 -0.302630
C -7.435298 -0.487810 -0.818590
C -6.139063 -0.290243 -0.345823
C -2.526198 0.105135 -0.417158
C -1.703921 0.771370 0.701703
C -0.209142 0.758062 0.337357
H 0.560003 0.560204 4.837589
H 0.619542 2.246995 4.032475
H 0.586033 -0.510118 2.685966
H 0.290776 2.415791 1.651129
H 2.701772 2.012702 1.759167
H 4.517908 1.103138 0.914766
H 6.403586 -0.021095 1.553829
H 6.169681 -1.862729 3.135886
H 7.599309 -2.120082 2.099496
H 6.603840 -3.775507 1.140926
H 6.061224 -2.176390 -0.666716
H 8.176534 -2.057901 -0.285834
H 6.308842 0.882463 -0.903975
H 5.949219 0.465486 -3.041951
H 3.944117 0.919485 -1.495022
H 3.552914 -1.006004 -2.430284
H 1.319507 2.641596 -2.159147
H -3.098946 0.885928 -3.702327
H -3.774890 2.126782 -2.592656
H -5.557679 0.574766 -2.985090
H -4.468410 -0.858802 -2.836006
H -3.963700 -0.491353 2.059676
H -6.479792 -1.074560 2.941211
H -8.833908 -1.402459 2.176057
H -10.016222 -0.946507 -1.261684
H -7.677620 -0.339389 -1.863427
H -2.158787 -0.935354 -0.554360
H -1.843167 0.210722 1.649344
H -2.052387 1.817028 0.855957
H 0.104281 -0.301565 0.194712
