50

C -1.754412 4.718887 -0.324292
C -2.045392 3.371430 0.268834
C -1.585055 2.206810 -0.241282
C -0.748050 2.126635 -1.506974
N 0.456716 1.299411 -1.305404
C 1.507883 2.019566 -0.540329
C 2.848098 1.260381 -0.592491
C 2.617902 -0.200105 -0.373789
C 1.391084 -0.815206 -0.516438
N 1.486407 -2.152153 -0.335188
C 2.794133 -2.382998 -0.105982
C 3.407243 -3.613947 0.122093
C 4.800015 -3.627643 0.324548
C 5.541666 -2.424923 0.293127
C 4.898362 -1.195278 0.061284
C 3.518368 -1.213159 -0.130604
C 0.126905 -0.045654 -0.753777
C -0.684430 0.035843 0.560551
C -1.960251 0.888973 0.413697
C -3.111902 0.157613 -0.341104
C -3.116864 -1.326732 -0.548517
O -2.863425 -1.802707 -1.688696
O -3.384631 -2.168733 0.533828
C -3.354483 -3.586266 0.425030
C -4.463537 0.758656 -0.202586
O -3.716878 0.877385 -1.392825
H -0.660677 4.910618 -0.317594
H -2.252420 5.506747 0.278672
H -2.144567 4.771789 -1.362481
H -2.663373 3.352552 1.162393
H -0.456209 3.122765 -1.898306
H -1.363983 1.666955 -2.308481
H 1.676302 3.028630 -0.976658
H 1.200150 2.167530 0.516883
H 3.536592 1.656897 0.183805
H 3.314193 1.400244 -1.591218
H 0.712310 -2.852687 -0.367625
H 2.832463 -4.530848 0.139863
H 5.307031 -4.566845 0.503411
H 6.612382 -2.449635 0.448357
H 5.457886 -0.269156 0.035364
H -0.463726 -0.602874 -1.511681
H -0.054137 0.476976 1.362979
H -0.940213 -0.986181 0.913205
H -2.323143 1.072530 1.450563
H -3.596713 -4.032743 1.411114
H -4.105347 -3.926734 -0.319088
H -2.341210 -3.921403 0.117142
H -5.343798 0.098549 -0.356282
H -4.545267 1.740239 0.309012
