51

C 4.014463 1.439687 1.502327
C 2.972244 1.509775 0.425478
C 2.506955 0.427696 -0.234826
C 3.036976 -0.988284 0.011000
N 2.000725 -2.026996 -0.281495
C 1.175236 -2.255409 0.916380
C 0.288640 -1.040441 1.189819
C -0.541866 -0.637123 -0.075575
C -2.071018 -0.551865 0.255427
C -2.715821 -1.400337 1.186348
C -4.087321 -1.279867 1.431126
C -4.852840 -0.362821 0.710986
C -4.260729 0.396951 -0.296917
C -2.890186 0.271781 -0.551923
N -2.308047 0.895885 -1.697089
C -0.947885 0.504382 -2.054001
O -0.952655 -0.886277 -2.386382
C -0.361831 -1.578738 -1.280831
O -1.024884 -2.801676 -1.075877
C 1.189517 -1.814621 -1.541241
C 1.707024 -0.584925 -2.306084
C 1.484916 0.598622 -1.342692
C -0.029696 0.651476 -0.819288
C -0.271488 1.947763 -0.067174
O -0.237407 3.044074 -0.691674
O -0.502765 1.931606 1.311782
C -0.714843 3.116362 2.067960
H 4.263654 2.465153 1.846591
H 3.628002 0.863404 2.368987
H 4.937914 0.963107 1.111098
H 2.585774 2.493074 0.171627
H 3.425090 -1.101839 1.045829
H 3.916899 -1.160037 -0.644107
H 1.813372 -2.462079 1.803812
H 0.557480 -3.168303 0.784078
H -0.323350 -1.264946 2.080007
H 0.897465 -0.195213 1.559270
H -2.186104 -2.184846 1.705881
H -4.562032 -1.916385 2.166796
H -5.915268 -0.278189 0.899537
H -4.873425 1.050056 -0.905342
H -2.840239 1.580903 -2.279642
H -0.600429 1.112347 -2.918367
H -1.024057 -3.278496 -1.946186
H 1.318723 -2.702051 -2.197102
H 1.195796 -0.441643 -3.281300
H 2.778324 -0.700863 -2.582833
H 1.714930 1.527121 -1.912960
H -0.876064 2.845154 3.131309
H 0.174966 3.777009 1.995359
H -1.612834 3.650881 1.692095
