50

C -3.897436 -0.051603 2.839970
C -2.575151 -0.032972 2.125902
C -2.424061 -0.317335 0.809091
C -3.626066 -0.660760 -0.048917
O -4.131847 -1.911687 0.325895
C -1.031261 -0.214256 0.183060
C -0.610447 -1.575914 -0.535740
C 0.410034 -1.350854 -1.707657
C 1.793706 -1.429928 -1.161185
N 2.548306 -2.546035 -1.049206
C 3.621877 -2.169957 -0.326566
C 4.689049 -2.969811 0.079157
C 5.695179 -2.375969 0.863998
C 5.609728 -1.013444 1.229607
C 4.517623 -0.229880 0.813963
C 3.542186 -0.843135 0.030481
C 2.365225 -0.363574 -0.499827
C 1.725524 0.986218 -0.359107
C 0.496040 1.168528 -1.309672
N 0.184391 0.018196 -2.159946
C -1.176098 0.592597 -2.172352
O -2.153487 0.603583 -2.966105
C -0.875630 1.055044 -0.773982
C -1.539693 2.372398 -0.328572
O -1.374202 3.376464 -1.310093
C -1.958780 4.575940 -0.855829
H -3.748096 0.222937 3.905178
H -4.591555 0.685047 2.384692
H -4.343370 -1.066835 2.801298
H -1.707913 0.239160 2.721354
H -4.407857 0.122236 0.064928
H -3.352681 -0.690837 -1.121535
H -4.935185 -2.064659 -0.236294
H -0.305498 -0.087637 1.011752
H -1.502824 -2.064842 -0.978021
H -0.212937 -2.294305 0.215481
H 0.257265 -2.073828 -2.537228
H 2.325096 -3.501209 -1.407675
H 4.742022 -4.014879 -0.197241
H 6.538230 -2.968819 1.194030
H 6.387727 -0.570337 1.837475
H 4.439032 0.812066 1.096191
H 2.491524 1.745026 -0.627794
H 1.459087 1.182127 0.699306
H 0.675053 2.088667 -1.931243
H -2.623564 2.183535 -0.161137
H -1.070567 2.678735 0.634275
H -1.827387 5.351239 -1.638128
H -1.458893 4.942669 0.068119
H -3.051419 4.452892 -0.684564
