59

C -1.759726 -1.732466 1.926074
C -2.997144 -1.417919 1.076053
C -4.128709 -0.846292 1.935851
C -2.662897 -0.482301 -0.072745
C -2.136792 0.739621 0.142942
C -1.867380 1.657722 -1.023495
O -0.746216 1.160359 -1.742641
C 0.451845 1.832595 -1.389427
O 0.738573 1.697584 -0.000803
C 1.306476 0.450104 0.399637
C 2.694377 0.716285 1.006803
O 3.137876 -0.415411 1.750695
C 4.341071 -0.432049 2.459598
O 5.076103 0.593563 2.506008
C 4.773834 -1.690864 3.140339
C 5.755677 -2.463086 2.309413
O 6.389891 -3.415888 2.835149
O 5.950498 -2.160984 0.961521
C 1.314755 -0.660310 -0.690947
O 1.980997 -1.809307 -0.233015
C 1.914279 -0.162803 -2.024968
O 3.298642 -0.407587 -2.056454
C 1.610711 1.336710 -2.275182
O 2.752942 2.118723 -2.024270
C -3.120403 1.685018 -1.957159
C -4.235867 2.503444 -1.274792
O -2.800167 2.355044 -3.154954
C -3.663054 0.239474 -2.273071
C -2.951752 -0.891689 -1.502074
H -2.005338 -2.512589 2.677141
H -1.404903 -0.829067 2.463774
H -0.941102 -2.117733 1.281737
H -3.358283 -2.384689 0.663192
H -4.416662 -1.575649 2.724726
H -3.820465 0.103684 2.425015
H -5.021397 -0.645438 1.302564
H -1.947620 1.097668 1.151069
H -1.696980 2.690258 -0.632564
H 0.333947 2.918126 -1.611434
H 0.673015 0.069872 1.230174
H 3.431849 0.954560 0.213735
H 2.627110 1.590386 1.691373
H 3.883251 -2.329189 3.332880
H 5.237665 -1.436739 4.118634
H 6.618931 -2.677359 0.404378
H 0.251069 -0.938785 -0.869452
H 1.761091 -2.542914 -0.864783
H 1.427882 -0.760141 -2.833207
H 3.576370 -0.358756 -3.007893
H 1.314007 1.451928 -3.346052
H 2.660982 2.950006 -2.560971
H -3.881667 3.529574 -1.034266
H -4.567428 2.013363 -0.334825
H -5.112713 2.596256 -1.951474
H -2.147213 1.798639 -3.658544
H -3.575875 0.018849 -3.359495
H -4.750716 0.168409 -2.048180
H -3.576679 -1.808809 -1.539666
H -1.990568 -1.131008 -2.007397
