51

C 5.323458 1.445377 0.394679
C 3.896906 1.346352 -0.066614
C 3.621288 0.712887 -1.211557
C 2.191642 0.549982 -1.648162
O 2.097456 -0.363407 -2.707593
C 1.288670 0.133824 -0.442805
O -0.006844 -0.078072 -1.033125
C -1.145392 0.007477 -0.186143
O -1.768483 -1.268985 -0.172400
C -3.048913 -1.320167 0.462240
C -4.053083 -1.917508 -0.543507
O -5.128364 -2.506160 0.135746
C -3.533517 0.027335 1.095856
O -4.834948 -0.051894 1.627105
C -3.347210 1.240704 0.149574
O -4.499315 1.455798 -0.625329
C -2.126612 1.045368 -0.779532
O -1.495386 2.284714 -0.982034
C 1.821614 -1.191942 0.266386
C 2.026586 -2.370347 -0.710298
C 0.975795 -1.695444 1.453924
C 1.364482 1.371333 0.535877
C 2.785056 1.989963 0.740586
H 5.393471 2.000590 1.353814
H 5.737536 0.424783 0.548471
H 5.935506 1.975001 -0.369487
H 4.418037 0.241881 -1.781834
H 1.837688 1.544435 -2.012941
H 2.438715 0.096864 -3.514133
H -0.892402 0.290519 0.852765
H -2.954842 -2.051353 1.298854
H -4.413380 -1.131460 -1.246473
H -3.548057 -2.706508 -1.147510
H -5.791103 -2.760783 -0.561000
H -2.869568 0.202613 1.969933
H -5.477601 -0.136446 0.885085
H -3.180295 2.131482 0.801665
H -4.431500 2.379874 -0.988887
H -2.487202 0.646211 -1.759817
H -0.996080 2.213574 -1.839320
H 2.820809 -0.971730 0.705313
H 2.941043 -2.226155 -1.318436
H 1.139703 -2.490214 -1.372626
H 2.170704 -3.325441 -0.160627
H 0.065117 -2.216438 1.108274
H 1.564172 -2.438492 2.033055
H 0.702074 -0.898772 2.162030
H 0.715628 2.179294 0.131324
H 0.961102 1.146242 1.539817
H 3.046525 1.961857 1.826067
H 2.749311 3.071388 0.448923
