53

C -4.081153 1.050018 1.072672
C -3.176976 0.062127 1.823971
C -1.724550 -0.089793 1.263258
C -1.051885 -1.171515 2.076125
C -1.210212 -2.464345 1.757914
C -2.042916 -2.912826 0.571718
N -2.205804 -1.896479 -0.503763
C -1.592696 -2.230948 -1.812980
C -0.731389 -1.026224 -2.258907
C -0.384231 -0.359362 -0.933112
C -0.030736 1.120283 -0.945852
C -0.547397 1.916915 0.024769
C -0.298886 3.375055 -0.023809
O -0.390013 4.069136 1.025962
O 0.016760 3.984345 -1.243300
C 0.276404 5.378085 -1.360139
C -0.945085 1.277953 1.367279
N 1.374220 1.249133 -1.176483
C 1.920176 0.022810 -0.720760
C 3.275307 -0.232835 -0.517011
C 3.663539 -1.519154 -0.084566
O 5.003762 -1.857983 0.151730
C 6.097477 -0.959203 -0.001002
C 2.680597 -2.508976 0.104695
C 1.323446 -2.226881 -0.112934
C 0.945951 -0.922626 -0.458429
C -1.718666 -0.550205 -0.204142
H -3.558549 2.002136 0.849120
H -4.969162 1.280969 1.698071
H -4.450527 0.601627 0.127065
H -3.692650 -0.922483 1.833607
H -3.114552 0.394294 2.884389
H -0.457333 -0.912969 2.947745
H -0.739436 -3.220909 2.377978
H -3.054000 -3.159188 0.956651
H -1.635463 -3.870849 0.184922
H -2.395166 -2.416274 -2.558080
H -0.955700 -3.139839 -1.767614
H 0.157137 -1.350471 -2.846311
H -1.340013 -0.338868 -2.888833
H -0.615623 5.958929 -1.042769
H 1.148985 5.656101 -0.731306
H 0.504224 5.618617 -2.418588
H 0.003367 1.134704 1.929906
H -1.523470 2.008647 1.971968
H 1.911039 2.144937 -1.200727
H 3.999630 0.548512 -0.701947
H 6.161766 -0.611630 -1.053688
H 5.976725 -0.091359 0.681406
H 7.038672 -1.486232 0.257269
H 2.975052 -3.508976 0.396662
H 0.609180 -3.026911 -0.042053
H -2.429178 0.130979 -0.727746
