74

C 0.322749 -0.364643 -2.486020
C -0.121287 -0.572051 -1.240935
C 0.055043 0.391743 -0.075032
C 1.498122 0.391295 0.459802
O 1.963491 -0.942010 0.580084
C 2.848001 -1.089969 1.677300
O 3.997603 -0.256744 1.499927
C 5.184939 -0.943941 1.125866
C 6.222272 0.078539 0.641720
O 5.705522 0.847103 -0.411947
C 4.929850 -2.048302 0.071268
O 4.372841 -1.474240 -1.085773
C 3.966213 -3.122241 0.647255
O 4.666255 -4.291744 0.997131
C 3.165489 -2.593536 1.858814
O 1.977717 -3.331792 1.991099
O 2.350307 1.115657 -0.424858
C 1.939076 2.269706 -1.101139
C 0.644939 2.631674 -1.160166
C 0.307972 3.876354 -1.883081
O 0.960050 4.930211 -1.647557
O -0.699745 3.870870 -2.853705
C -1.069310 5.034527 -3.582801
C -0.396289 1.860075 -0.343831
C -1.850969 1.967967 -0.885015
C -2.881108 1.394387 0.081114
N -3.321379 2.066043 1.138159
C -3.038428 3.500981 1.317763
C -4.279873 1.453159 2.101273
C -4.059644 -0.061212 2.305697
C -3.876760 -0.690032 0.971794
C -3.309943 -0.012489 -0.077514
N -3.241541 -0.792482 -1.183495
C -3.740552 -1.985757 -0.800022
C -3.868212 -3.136557 -1.575855
C -4.415331 -4.282103 -0.968391
C -4.818029 -4.253546 0.386203
C -4.675849 -3.080051 1.148786
C -4.133133 -1.962818 0.518519
H 0.148786 -1.117720 -3.248520
H 0.828203 0.540603 -2.783131
H -0.639728 -1.507487 -1.042383
H -0.575854 -0.004885 0.752154
H 1.478492 0.927946 1.439469
H 2.337993 -0.770853 2.615545
H 5.623170 -1.418453 2.033233
H 6.488595 0.748336 1.490157
H 7.146342 -0.447834 0.311898
H 6.421914 1.486042 -0.665758
H 5.906803 -2.522802 -0.187716
H 4.508386 -2.124757 -1.822781
H 3.241002 -3.405008 -0.148789
H 5.349761 -4.043886 1.674277
H 3.775998 -2.711689 2.784723
H 1.630718 -3.155674 2.903439
H 2.692336 2.845601 -1.624377
H -0.197347 5.422608 -4.151496
H -1.875837 4.774572 -4.298476
H -1.443385 5.815892 -2.887687
H -0.391101 2.357228 0.647449
H -1.917062 1.476477 -1.874958
H -2.109963 3.025642 -1.071197
H -3.402831 4.077904 0.441718
H -3.562875 3.911988 2.205363
H -1.956504 3.677112 1.471046
H -4.201739 1.941039 3.097497
H -5.314179 1.618678 1.727533
H -3.144570 -0.229951 2.912472
H -4.933611 -0.505232 2.828515
H -2.887629 -0.541658 -2.132784
H -3.554951 -3.150720 -2.611887
H -4.528613 -5.191860 -1.542947
H -5.241267 -5.140703 0.839252
H -4.980524 -3.048528 2.186711
