75

C 8.535684 -0.393627 3.336606
C 7.907997 0.360969 2.215473
O 7.225617 1.390606 2.464788
O 8.133865 -0.049975 0.896856
C 7.533600 0.572289 -0.239220
C 6.148785 -0.040382 -0.530608
O 5.347649 0.001623 0.651891
C 4.160645 0.777110 0.570765
O 3.165889 0.041823 -0.124406
C 1.885642 0.231686 0.446164
C 0.802290 -0.253395 -0.526580
O -0.452161 0.244747 -0.063948
C -1.577780 -0.576703 -0.356490
O -2.735251 0.236926 -0.388553
C -3.281985 0.407324 0.905181
C -4.203488 -0.737923 1.251966
C -5.275092 -1.112040 0.513261
C -6.004665 -2.367661 0.929751
C -5.638077 -0.404378 -0.785563
C -7.107459 -0.462949 -1.126156
O -7.431646 -0.901330 -2.262546
C -8.204615 -0.126950 -0.186731
C -8.212114 0.843510 0.748476
C -9.447056 1.005483 1.593635
C -7.088875 1.827298 0.925893
C -1.458795 -1.301374 -1.713028
O -1.289904 -0.363228 -2.747393
C -0.259225 -2.272336 -1.692254
O -0.705354 -3.554197 -1.324326
C 0.838200 -1.801322 -0.703244
O 2.099030 -2.254748 -1.130904
C 4.402832 2.146107 -0.104770
O 5.318369 2.889438 0.660197
C 4.922908 1.976196 -1.555192
O 5.889144 2.952533 -1.859169
C 5.491533 0.563549 -1.807394
O 6.391674 0.586713 -2.887268
H 9.491142 0.093946 3.619723
H 7.855857 -0.404695 4.214212
H 8.736115 -1.439731 3.024229
H 7.472878 1.669916 -0.090487
H 8.200598 0.397401 -1.108977
H 6.326535 -1.116033 -0.751183
H 3.859957 0.974378 1.627985
H 1.807262 -0.335239 1.399366
H 1.696724 1.309017 0.658288
H 1.011240 0.219782 -1.512344
H -1.661305 -1.367311 0.428524
H -2.494207 0.513185 1.686548
H -3.856829 1.355744 0.924725
H -3.958950 -1.301135 2.148455
H -5.279379 -3.192198 1.099413
H -6.565302 -2.177782 1.868804
H -6.717719 -2.710711 0.153622
H -5.057429 -0.891199 -1.598524
H -5.326052 0.656815 -0.783022
H -9.110386 -0.710172 -0.312829
H -9.779399 0.018667 1.987441
H -10.265010 1.445049 0.981689
H -9.258884 1.668345 2.466559
H -6.803721 2.267177 -0.051082
H -6.225436 1.330726 1.404701
H -7.391672 2.668582 1.582790
H -2.391840 -1.886447 -1.895996
H -2.185860 0.012887 -2.946724
H 0.157418 -2.321005 -2.727373
H 0.009533 -4.192955 -1.585233
H 0.638413 -2.255799 0.292967
H 2.323753 -1.773051 -1.968705
H 3.439866 2.706407 -0.151988
H 4.828072 3.219226 1.457339
H 4.060758 2.100998 -2.253223
H 5.406857 3.817951 -1.932762
H 4.638397 -0.095930 -2.089322
H 6.540194 -0.356218 -3.159760
