52

C 5.903670 0.063384 -0.646431
O 4.656187 0.708600 -0.507775
C 3.750185 -0.118339 0.206821
O 3.345606 -1.231208 -0.586196
C 2.584004 -0.821537 -1.715440
O 2.275524 -1.929315 -2.523251
C 1.291994 -0.107366 -1.268842
C 1.727232 1.223916 -0.522652
C 0.497099 2.043779 0.033734
C -0.508685 0.983404 0.582506
C -1.922052 0.530026 0.376083
C -2.132701 -0.703926 -0.248093
C -3.492764 -0.777880 -0.447177
C -4.267044 -1.730848 -1.103927
C -5.650308 -1.498231 -1.198789
C -6.219157 -0.323860 -0.658484
C -5.411894 0.634292 -0.018148
C -4.041216 0.379403 0.079966
N -3.082739 1.186687 0.597127
C -3.239302 2.544811 1.109462
C -0.970991 -1.518302 -0.822368
C 0.439318 -1.026488 -0.276770
N 0.231898 -0.258517 0.973251
C 1.519466 0.045656 1.666645
C 2.044427 -1.179836 2.430759
C 2.541787 0.742089 0.690891
H 5.804828 -0.907202 -1.180668
H 6.389382 -0.084638 0.343153
H 6.569926 0.711017 -1.252209
H 4.251142 -0.508168 1.121474
H 3.183184 -0.129897 -2.349719
H 2.057561 -2.692305 -1.928157
H 0.700550 0.162500 -2.171362
H 2.341569 1.876333 -1.181955
H 0.821706 2.678032 0.887457
H 0.129617 2.802223 -0.718706
H -0.692607 1.031595 -0.514331
H -3.820665 -2.620412 -1.529420
H -6.282803 -2.221038 -1.697446
H -7.284342 -0.154249 -0.746901
H -5.846529 1.543200 0.376114
H -3.380883 3.247588 0.262082
H -2.339676 2.847242 1.686179
H -4.118688 2.597201 1.784788
H -1.127037 -2.580224 -0.535350
H -0.995708 -1.464882 -1.930884
H 0.996494 -1.953601 -0.032500
H 1.290287 0.786418 2.467750
H 2.900664 -0.885898 3.074193
H 1.243152 -1.579317 3.087980
H 2.371294 -1.991438 1.751277
H 2.968040 1.629526 1.212279
