50

C -4.626187 -2.541619 -1.735775
C -3.994559 -1.682813 -0.680564
C -2.673919 -1.423256 -0.650370
C -1.683297 -1.966045 -1.656472
N -0.332894 -1.440312 -1.338694
C 0.087248 -1.882261 0.027967
C -0.982803 -1.475659 1.082616
C -2.038993 -0.558868 0.416465
C -1.335747 0.664973 -0.291593
C -2.433205 1.534166 -0.978470
O -1.889228 2.692456 -1.559304
C -0.667250 1.567359 0.758226
O -0.885177 1.390258 1.989272
O 0.080762 2.679601 0.358824
C 0.760490 3.522291 1.280972
C -0.343702 0.056010 -1.402308
C 1.128965 0.545932 -1.382634
C 1.837681 -0.083027 -0.227595
C 1.412976 -1.253548 0.366706
N 2.237401 -1.616628 1.375346
C 3.206830 -0.679160 1.391260
C 4.294249 -0.603313 2.260071
C 5.182340 0.478433 2.109862
C 4.964825 1.452397 1.108879
C 3.856933 1.355603 0.247338
C 2.998117 0.272461 0.418898
H -5.718561 -2.614881 -1.552808
H -4.191791 -3.562927 -1.706856
H -4.463713 -2.094249 -2.738787
H -4.639942 -1.256754 0.082311
H -1.673708 -3.077066 -1.618005
H -1.975082 -1.660856 -2.684868
H 0.219734 -2.986709 0.034424
H -1.485584 -2.392505 1.464812
H -0.528068 -0.998562 1.975076
H -2.785497 -0.223098 1.171330
H -2.991881 0.950668 -1.746413
H -3.181731 1.850809 -0.219761
H -1.655485 2.470593 -2.497570
H 0.032013 3.996571 1.971978
H 1.296422 4.315952 0.721455
H 1.500018 2.929971 1.860815
H -0.713954 0.341518 -2.412362
H 1.220050 1.647177 -1.391387
H 1.629234 0.190659 -2.309368
H 2.127822 -2.429811 2.021380
H 4.451139 -1.350718 3.026963
H 6.036956 0.566276 2.767923
H 5.653336 2.280998 1.006603
H 3.676421 2.101515 -0.515809
