52

C -4.328762 -0.745305 2.035927
C -4.269505 -0.292656 0.568573
C -4.557670 -1.485438 -0.359712
C -2.936269 0.453798 0.250119
C -3.037247 1.272440 -1.054596
C -1.756206 2.082906 -1.299097
C -0.493219 1.195803 -1.314372
C -0.398435 0.364348 -2.607657
C -0.407200 0.334734 -0.028356
O 0.690760 -0.558917 -0.131471
C 1.431575 -0.620796 1.077498
O 2.187653 0.567032 1.279010
C 3.138386 0.763043 0.241817
C 3.776962 2.145223 0.422789
O 4.678070 2.404262 -0.618545
C 4.196869 -0.369110 0.245154
O 4.907443 -0.373841 1.459341
C 3.497264 -1.729133 0.066456
O 2.995334 -1.845159 -1.241941
C 2.352278 -1.862341 1.091320
O 1.625359 -3.053124 0.907382
C -1.699165 -0.472320 0.204564
H -5.339835 -1.142250 2.269733
H -3.586334 -1.544473 2.240779
H -4.134622 0.111604 2.715434
H -5.101516 0.434444 0.434189
H -4.529425 -1.181033 -1.424983
H -3.830255 -2.307700 -0.194828
H -5.574510 -1.882904 -0.153941
H -2.773284 1.188802 1.071542
H -3.222128 0.610094 -1.924907
H -3.891742 1.980234 -0.985177
H -1.653569 2.844806 -0.494959
H -1.846993 2.635460 -2.259558
H 0.384730 1.879745 -1.314122
H 0.573482 -0.171013 -2.651831
H -1.216152 -0.380592 -2.679897
H -0.452412 1.032218 -3.493443
H -0.296798 1.053446 0.821670
H 0.741466 -0.741280 1.944845
H 2.634181 0.784168 -0.751643
H 2.972671 2.914915 0.412623
H 4.298938 2.203108 1.403961
H 5.056523 3.303610 -0.437565
H 4.899346 -0.227322 -0.610995
H 5.716176 0.186798 1.328379
H 4.231271 -2.547941 0.254555
H 3.770113 -2.040420 -1.831238
H 2.813031 -1.917420 2.102541
H 1.173446 -3.008166 0.025505
H -1.602504 -1.014948 1.167632
H -1.807573 -1.231438 -0.597652
