39

C -3.060711 2.567488 0.177451
C -2.724697 1.162505 0.702826
C -3.165782 0.034067 -0.230164
C -2.166960 -0.382838 -1.304238
C -1.015756 0.613667 -1.538107
C -0.465848 1.265782 -0.226851
C 0.931442 0.801356 0.004886
N 2.059103 1.331327 -0.521053
C 3.039762 0.475471 -0.170524
C 4.395348 0.568983 -0.481499
C 5.245801 -0.458006 -0.030435
C 4.727961 -1.546924 0.707279
C 3.354089 -1.620963 1.001852
C 2.539217 -0.586511 0.547414
C 1.182009 -0.380754 0.649591
C 0.118694 -1.218416 1.273471
C -1.290329 -0.554523 1.172984
N -1.290636 0.918623 0.973729
C -2.171032 -1.096187 0.046290
C -2.822451 -2.440816 0.164392
O -2.413580 -3.379545 -0.498931
H -4.159703 2.723198 0.217683
H -2.575710 3.334481 0.817348
H -2.742049 2.713413 -0.873174
H -3.286187 1.052030 1.659645
H -4.229559 -0.273195 -0.330100
H -2.608650 -0.932771 -2.162147
H -0.215034 0.080939 -2.097203
H -1.381500 1.409396 -2.220196
H -0.425567 2.370607 -0.343535
H 2.144524 2.196021 -1.100450
H 4.782575 1.402879 -1.052498
H 6.303932 -0.414998 -0.253283
H 5.392315 -2.331547 1.045111
H 2.946509 -2.454023 1.559888
H 0.381668 -1.355798 2.344481
H 0.112570 -2.221734 0.796455
H -1.804418 -0.783134 2.136996
H -3.641360 -2.589552 0.860519
