51

C -4.342017 4.057727 -1.152786
O -3.942137 2.786857 -0.655160
C -4.756343 1.653087 -0.738009
O -5.910981 1.739047 -1.241578
C -4.273978 0.358758 -0.201054
C -5.167716 -0.493277 0.331541
O -4.764750 -1.650678 1.003500
C -3.411725 -1.876233 1.389617
C -3.246213 -3.358836 1.733082
C -2.485053 -1.413721 0.245079
C -0.991816 -1.575216 0.589856
N -0.121100 -1.018077 -0.457239
C 1.300037 -1.390835 -0.451636
C 2.105404 -0.420045 0.418860
C 3.572756 -0.744137 0.370033
O 3.981067 -1.793077 0.938105
C 4.533250 0.116957 -0.363604
C 4.169798 0.630670 -1.623387
C 5.071649 1.389345 -2.371487
C 6.349541 1.644550 -1.877156
C 6.725062 1.155103 -0.625654
C 5.826275 0.402757 0.147899
N 6.229038 -0.011799 1.460832
C -0.579282 0.042383 -1.325425
O 0.232712 0.627777 -2.092738
C -2.031556 0.421223 -1.395999
C -2.776463 0.071197 -0.093164
H -4.533324 3.994898 -2.245015
H -3.530315 4.791845 -0.971733
H -5.259912 4.399424 -0.629248
H -6.229758 -0.294591 0.259728
H -3.200542 -1.275308 2.302350
H -4.039675 -3.667052 2.446392
H -2.266515 -3.542892 2.220877
H -3.329783 -3.983694 0.818477
H -2.707806 -2.039394 -0.650391
H -0.769742 -1.066367 1.553262
H -0.764680 -2.655711 0.708513
H 1.692134 -1.399660 -1.491798
H 1.422693 -2.424261 -0.058880
H 1.757768 -0.496456 1.471564
H 1.931473 0.626518 0.088611
H 3.194270 0.427066 -2.044395
H 4.781498 1.772083 -3.341663
H 7.048143 2.230035 -2.460924
H 7.715105 1.378527 -0.248092
H 5.545222 -0.360486 2.166523
H 7.214542 0.125111 1.779092
H -2.495838 -0.114028 -2.252867
H -2.091209 1.509251 -1.599219
H -2.379210 0.713635 0.725560
