157

C -10.622430 -6.425104 3.744630
C -10.746914 -4.951471 3.479315
C -11.695735 -4.226134 4.105448
C -11.861022 -2.738358 4.030742
O -13.222086 -2.439329 3.975911
C -9.800596 -4.365557 2.463839
C -8.580208 -3.750776 3.158821
C -7.472566 -3.519746 2.165299
C -7.403808 -2.435026 1.378409
C -8.619871 -1.658322 0.901737
C -6.156017 -2.168964 0.616251
O -5.034050 -2.237216 1.217015
O -6.289859 -1.294400 -0.441579
C -5.306856 -0.550657 -1.158224
C -4.090169 -1.323936 -1.657835
O -3.044431 -1.322538 -0.668415
C -1.981457 -0.382594 -0.968045
C -2.436093 1.096403 -0.696429
O -3.281567 1.616093 -1.707915
C -1.267690 2.028440 -0.453131
C -0.513829 2.435323 -1.746698
O -0.429920 1.491918 0.543057
C 0.245787 0.330443 0.123933
O 1.167951 -0.072784 1.125420
C 2.370249 0.649274 1.032417
C 2.157653 2.133500 1.262505
C 2.498774 3.148651 0.421941
C 2.040139 4.523349 0.787761
C 3.295453 2.959358 -0.856755
C 4.673405 3.613502 -0.778714
C 5.540678 2.962938 0.290792
C 6.097151 3.632089 1.329924
C 5.799484 5.088327 1.587119
C 7.083907 2.979854 2.290819
O 7.455630 1.646729 1.943061
C 8.407315 1.695692 0.889935
O 9.659229 2.136088 1.352503
C 10.547323 2.420729 0.264027
C 11.902514 2.774714 0.819128
C 10.599558 1.235749 -0.761253
O 11.881773 0.956291 -1.285346
C 9.929821 -0.001818 -0.186338
O 10.681274 -0.410652 0.969082
C 11.290296 -1.669827 0.844317
O 10.475627 -2.668106 1.421957
C 10.871957 -3.965500 0.972313
C 9.979866 -4.389436 -0.197444
O 8.624861 -4.359294 0.151264
C 12.403811 -4.102032 0.643854
O 12.636241 -3.852827 -0.747434
C 13.231193 -3.163253 1.559726
O 13.227427 -3.798983 2.827822
C 12.674830 -1.674751 1.540824
O 12.624242 -1.119593 2.837622
C 8.483293 0.273095 0.243077
O 7.658737 0.229438 -0.890444
C -0.727596 -0.830296 -0.169418
O -1.059102 -1.615155 0.951668
O -4.488220 -2.633579 -1.990220
C -5.431340 -2.576991 -3.093493
C -6.452547 -3.682873 -2.818668
C -6.138980 -1.195052 -3.470639
O -7.470347 -1.385153 -3.883948
C -5.987658 -0.027535 -2.413393
O -7.265787 0.451582 -2.014617
C -7.531000 1.739838 -2.517703
O -8.569838 1.631178 -3.481807
C -8.880888 2.885062 -4.090128
C -10.378489 2.858403 -4.448117
C -8.575359 4.143223 -3.190926
O -7.253041 4.568066 -3.422031
C -8.800858 3.785349 -1.716965
O -8.580369 4.874920 -0.854863
C -8.000213 2.523979 -1.300788
O -6.900337 2.830291 -0.483109
H -11.216693 -6.978064 2.982248
H -10.960051 -6.687131 4.779140
H -9.552321 -6.736070 3.640731
H -12.353943 -4.741167 4.806819
H -11.421057 -2.298072 4.953182
H -11.297403 -2.274189 3.181808
H -13.364837 -1.859099 3.179277
H -10.303967 -3.648705 1.780413
H -9.433024 -5.184224 1.794332
H -8.191503 -4.480648 3.914870
H -8.863448 -2.829498 3.724877
H -6.608425 -4.198863 2.222960
H -9.475281 -1.627950 1.606633
H -8.908756 -2.037290 -0.109998
H -8.307718 -0.577092 0.781633
H -5.013142 0.333719 -0.523731
H -3.745593 -0.938913 -2.601928
H -1.564741 -0.429288 -1.991987
H -3.034869 1.076436 0.258893
H -2.855384 1.581039 -2.607120
H -1.666846 2.967921 -0.043734
H -0.275348 1.555964 -2.370895
H 0.424968 2.983101 -1.481801
H -1.148660 3.100818 -2.364364
H 0.794690 0.509990 -0.864976
H 2.852109 0.371324 0.073778
H 3.033037 0.276828 1.838193
H 1.512198 2.378480 2.119964
H 0.925562 4.603463 0.674887
H 2.496165 5.288817 0.119368
H 2.326203 4.752043 1.820009
H 3.419713 1.913235 -1.198135
H 2.740663 3.471007 -1.690669
H 5.194418 3.460898 -1.765828
H 4.585860 4.694837 -0.660051
H 5.778506 1.921412 0.123714
H 6.232702 5.722429 0.790372
H 4.696983 5.231339 1.638898
H 6.202201 5.408079 2.564113
H 7.970080 3.652295 2.417463
H 6.586510 2.940518 3.298329
H 8.018894 2.378531 0.086032
H 10.185004 3.339587 -0.258375
H 12.593688 3.044112 0.008484
H 11.813330 3.681923 1.476564
H 12.299180 1.914797 1.413828
H 9.966378 1.524604 -1.637972
H 12.371152 0.376619 -0.648034
H 9.854731 -0.732669 -1.032889
H 11.532145 -1.913954 -0.214546
H 10.659108 -4.632691 1.821309
H 10.121043 -3.712389 -1.061916
H 10.264310 -5.424877 -0.510206
H 8.505843 -5.038669 0.862984
H 12.703133 -5.167427 0.835102
H 13.612135 -3.723633 -0.888673
H 14.284204 -3.144907 1.205139
H 13.525339 -3.151154 3.498403
H 13.352398 -1.038358 0.905263
H 12.229164 -0.191421 2.770475
H 8.171865 -0.487313 0.982997
H 7.616303 -0.729229 -1.166013
H -0.092315 -1.496803 -0.868947
H -1.446578 -1.002148 1.642211
H -4.850453 -2.904782 -4.020416
H -7.247976 -3.726152 -3.609591
H -6.837335 -3.670732 -1.772669
H -5.941730 -4.654995 -2.920240
H -5.577485 -0.826450 -4.406365
H -7.828457 -0.553311 -4.299775
H -5.288146 0.743305 -2.835959
H -6.668918 2.280697 -2.972355
H -8.301206 2.989665 -5.040419
H -10.982562 2.715006 -3.537238
H -10.573907 2.021044 -5.153148
H -10.702985 3.792186 -4.949065
H -9.288241 4.993983 -3.466384
H -7.273827 5.557259 -3.527827
H -9.883751 3.513357 -1.617826
H -7.654727 5.190679 -0.992264
H -8.704027 1.862198 -0.710626
H -6.612587 1.970525 -0.055483
