54

C -6.875890 3.073504 1.878834
C -5.497433 2.505825 1.888103
O -4.972236 2.160172 2.979750
O -4.814523 2.331338 0.684316
C -3.505998 1.770715 0.618059
C -2.999992 1.764135 -0.832635
O -1.610198 1.435774 -0.833618
C -1.264793 0.210394 -1.464220
O 0.039958 -0.136323 -1.028633
C 0.908207 -0.356223 -2.120523
C 2.258509 -0.776595 -1.607846
C 2.493738 -1.949589 -0.976678
C 1.391589 -2.955306 -0.738860
C 3.898148 -2.261779 -0.503649
C 4.294241 -1.392431 0.659283
O 3.452781 -1.168020 1.573248
C 5.683466 -0.876280 0.744229
C 6.184342 -0.088900 1.720041
C 5.358113 0.408161 2.876157
C 7.635023 0.309888 1.636548
C -2.224655 -0.927088 -1.065984
O -1.781519 -2.136443 -1.628905
C -3.679085 -0.615199 -1.500535
O -4.022345 -1.355868 -2.646545
C -3.896824 0.893252 -1.759430
O -3.617344 1.195892 -3.103965
H -7.070905 3.587597 0.915284
H -6.987669 3.806249 2.705257
H -7.614753 2.255510 2.013529
H -2.816015 2.386108 1.237218
H -3.519634 0.740550 1.031992
H -3.080366 2.814485 -1.192354
H -1.324237 0.358544 -2.571051
H 1.034429 0.586490 -2.699329
H 0.513143 -1.144396 -2.801147
H 3.088007 -0.092598 -1.776097
H 1.774533 -3.865933 -0.233921
H 0.944154 -3.265483 -1.706289
H 0.606367 -2.514540 -0.089949
H 3.982137 -3.321438 -0.184331
H 4.601391 -2.125574 -1.354258
H 6.354158 -1.178221 -0.053449
H 4.505130 1.013436 2.499952
H 4.983095 -0.449259 3.474554
H 5.955327 1.053802 3.554989
H 7.949009 0.920224 2.508411
H 7.806936 0.906009 0.717428
H 8.274871 -0.596953 1.600787
H -2.188519 -1.011174 0.046506
H -2.222420 -2.866627 -1.120298
H -4.345396 -0.929454 -0.662251
H -5.011419 -1.312029 -2.730421
H -4.971236 1.118337 -1.564057
H -4.055399 2.063335 -3.302919
