53

C 4.973040 -2.473841 0.010839
O 3.730767 -1.801369 -0.153003
C 3.522674 -0.485588 0.268660
O 4.454534 0.151784 0.830464
N 2.239319 0.134982 0.086187
C 1.986883 1.542361 -0.074459
C 2.929600 2.551537 -0.301820
C 2.470615 3.831608 -0.653539
C 1.093249 4.080012 -0.808949
C 0.158753 3.053384 -0.606198
C 0.631609 1.791014 -0.238784
C -0.095316 0.519367 0.125620
C -0.457934 0.709072 1.631462
C -1.772556 1.518677 1.528950
N -2.395388 1.144718 0.236328
C -3.814173 0.707003 0.326520
C -4.150979 -0.456394 -0.631877
C -3.224506 -1.685673 -0.457664
C -1.825769 -1.317199 0.110278
C -0.737650 -2.325227 -0.383193
C 0.696253 -1.940938 0.092051
C 0.999843 -0.501933 -0.380312
C 1.108318 -0.554146 -1.921758
O 1.812961 -1.444170 -2.472285
O 0.522818 0.421379 -2.726113
C -1.857036 -1.451978 1.676929
C -0.810910 -0.582852 2.310197
O -0.318965 -0.880025 3.388173
C -1.485233 0.161944 -0.382887
H 4.888520 -3.500033 -0.401720
H 5.773866 -1.931121 -0.534648
H 5.230391 -2.539412 1.089209
H 3.991195 2.359127 -0.245873
H 3.182637 4.627189 -0.830609
H 0.753486 5.067285 -1.093573
H -0.897912 3.241243 -0.737967
H 0.315394 1.253801 2.221540
H -1.542952 2.604326 1.516130
H -2.436757 1.357968 2.408321
H -4.456023 1.571667 0.055451
H -4.114181 0.422798 1.355345
H -5.208272 -0.764610 -0.482249
H -4.063789 -0.082519 -1.675941
H -3.722459 -2.437161 0.194459
H -3.119227 -2.167281 -1.454611
H -0.971466 -3.352838 -0.028097
H -0.757265 -2.376936 -1.493437
H 1.405064 -2.670175 -0.352212
H 0.830773 -2.056606 1.183227
H 0.626576 0.397974 -3.733321
H -2.837738 -1.174310 2.106608
H -1.700093 -2.507696 1.991189
H -1.554583 0.239808 -1.487041
