45

C -2.982089 2.258672 -0.357648
C -1.869963 1.241909 -0.655391
C -1.503014 0.258951 0.529952
C -2.770285 -0.449583 1.055322
C -3.409403 -1.294661 -0.059624
C -2.425359 -2.291226 -0.711436
N -1.034295 -1.808344 -0.853452
C -0.560455 -1.362607 -2.169847
C 0.588511 -0.364529 -1.916825
C 0.828624 -0.420301 -0.396409
C 1.963432 -1.380073 -0.122025
O 1.944667 -2.625340 -0.315939
C 3.108859 -0.622158 0.319490
C 4.419218 -1.030578 0.562858
C 5.349458 -0.058970 0.964501
C 4.953779 1.285642 1.108875
C 3.623792 1.666383 0.859100
C 2.709060 0.682359 0.462747
N 1.306894 0.853204 0.205392
C 0.498324 1.624605 1.123606
O 0.891883 2.750160 1.529746
C -0.803492 1.068490 1.643380
C -0.509436 -0.903008 0.164466
H -2.742978 2.885340 0.523445
H -3.092540 2.938309 -1.229190
H -3.959821 1.757878 -0.208699
H -2.189552 0.688453 -1.552560
H -0.989300 1.840045 -0.957950
H -3.508384 0.279157 1.450049
H -2.514118 -1.117601 1.908136
H -3.849426 -0.641842 -0.840878
H -4.260110 -1.864969 0.372286
H -2.396278 -3.201818 -0.075549
H -2.826319 -2.612676 -1.697508
H -0.173201 -2.243775 -2.724544
H -1.371752 -0.909789 -2.776675
H 1.492472 -0.649798 -2.500767
H 0.304279 0.650756 -2.254001
H 4.713814 -2.064795 0.440757
H 6.375428 -0.343139 1.158982
H 5.678294 2.029928 1.412826
H 3.330987 2.701875 0.959584
H -1.450176 1.886018 2.021861
H -0.578762 0.415664 2.515155
H -0.311267 -1.502218 1.084400
