52

C 3.592688 2.629078 1.250703
C 3.146707 1.194223 1.237437
C 1.968517 0.768540 0.719619
C 0.954624 1.764033 0.182317
N -0.272981 1.096058 -0.291630
C -1.251810 2.123350 -0.729320
C -2.481792 1.474307 -1.383470
C -2.994125 0.405629 -0.481177
C -2.221970 -0.207085 0.484044
N -2.923545 -1.172267 1.125260
C -4.130928 -1.188779 0.530420
C -5.203106 -2.034344 0.816137
C -6.375944 -1.889762 0.052841
C -6.454268 -0.911175 -0.964841
C -5.358773 -0.070149 -1.232160
C -4.210688 -0.237476 -0.461973
C -0.806125 0.221342 0.785700
C 0.100346 -1.017803 0.927295
C 1.628752 -0.723083 0.784608
C 2.281246 -1.561567 -0.363528
C 1.785020 -1.222358 -1.794699
O 2.497727 -0.167842 -2.386048
C 3.790253 -1.594329 -0.262605
O 4.353311 -2.571991 0.303597
O 4.557411 -0.535653 -0.763312
C 5.966826 -0.450951 -0.596227
H 4.592174 2.702244 1.733058
H 3.678364 3.018587 0.214687
H 2.878582 3.250498 1.829129
H 3.829036 0.469790 1.673452
H 1.417142 2.325391 -0.657746
H 0.700440 2.495218 0.983612
H -1.580727 2.740685 0.136414
H -0.786846 2.801075 -1.477190
H -2.194473 1.018652 -2.354778
H -3.269132 2.239389 -1.555800
H -2.593831 -1.787281 1.905681
H -5.133529 -2.784579 1.596153
H -7.226339 -2.532247 0.245683
H -7.363688 -0.810693 -1.543182
H -5.410998 0.683075 -2.006762
H -0.826318 0.771007 1.755617
H -0.216298 -1.791092 0.188212
H -0.091254 -1.475709 1.925948
H 2.073211 -1.112309 1.731267
H 1.951428 -2.611675 -0.185799
H 0.690989 -1.018991 -1.808815
H 1.946430 -2.118360 -2.432580
H 1.982837 0.667069 -2.216366
H 6.333212 0.462316 -1.104591
H 6.220188 -0.386885 0.483668
H 6.462029 -1.335119 -1.050698
