56

C -3.902087 -0.033056 1.496179
C -3.143436 0.102829 0.136589
C -3.858780 1.294523 -0.586772
C -3.346400 -1.206485 -0.695381
O -3.082664 -2.346904 0.084048
C -2.469398 -1.245867 -1.960290
C -0.981766 -1.009371 -1.656594
C -0.664787 0.334771 -0.922774
C -0.993987 1.501164 -1.898256
C -1.585894 0.399512 0.375078
C -1.024651 -0.446378 1.574426
C 0.454423 -0.837382 1.539791
C 1.364743 0.217656 0.899989
C 1.206336 1.577599 1.663005
C 0.922304 0.376757 -0.597288
C 1.790053 1.494397 -1.201979
C 3.118166 1.441540 -1.036934
C 3.671683 0.313430 -0.272627
C 4.386912 -0.629833 -0.894420
O 5.121955 -0.451156 -2.065519
C 4.154536 -1.911528 -0.278984
O 4.667720 -3.006921 -0.627796
C 3.185838 -1.719572 0.773785
O 2.793811 -2.634635 1.546860
C 2.914493 -0.238694 0.944275
C 3.661218 0.190420 2.233358
H -3.600782 -0.912753 2.095775
H -3.748167 0.877283 2.115218
H -4.994084 -0.162019 1.330802
H -3.344618 2.261024 -0.403908
H -4.907474 1.434194 -0.245738
H -3.972873 1.135981 -1.675212
H -4.413810 -1.244515 -1.021796
H -3.534715 -3.114149 -0.355494
H -2.571783 -2.246696 -2.433943
H -2.837057 -0.529656 -2.720424
H -0.622541 -1.865569 -1.046994
H -0.423935 -1.050767 -2.618559
H -0.885177 2.482275 -1.388638
H -0.332617 1.461053 -2.789648
H -1.994311 1.464593 -2.337854
H -1.564592 1.449177 0.721641
H -1.216517 0.111412 2.518056
H -1.555814 -1.409284 1.673389
H 0.792197 -1.052617 2.577464
H 0.531809 -1.787539 0.969964
H 2.004012 2.295378 1.382564
H 0.270746 2.107790 1.439595
H 1.248902 1.424640 2.762433
H 1.327597 -0.530944 -1.101025
H 1.391626 2.348315 -1.726738
H 3.765342 2.179097 -1.493948
H 5.238131 0.461484 -2.488815
H 3.798078 1.289706 2.286815
H 3.109350 -0.154250 3.133418
H 4.682736 -0.249459 2.269828
