56

C -6.293917 -1.153319 -0.226757
C -5.130598 -0.309924 0.203271
C -3.865898 -0.575736 -0.170193
C -3.463748 -1.732197 -1.074699
N -1.979493 -1.830378 -1.096785
C -1.522982 -1.989503 0.322579
C -0.010119 -2.286541 0.358020
C 0.498111 -0.891816 0.083286
C 1.942349 -0.538238 0.081147
C 2.940740 -0.856502 0.999508
C 4.205844 -0.261186 0.854515
O 5.205150 -0.596518 1.779627
C 6.526558 -0.066908 1.761743
C 4.430163 0.656958 -0.204992
C 3.400834 0.979164 -1.105148
C 2.152700 0.375579 -0.937625
N 0.991759 0.547510 -1.766094
C 1.023342 1.133768 -3.101907
C 0.159265 -0.600901 -1.409335
C -1.369517 -0.578804 -1.692634
C -2.046170 0.689425 -1.110294
C -2.694729 0.290982 0.235377
C -1.714469 -0.617851 1.060380
C -0.277578 -0.067610 1.149106
O -0.197742 1.349017 0.968162
C 0.804647 2.157007 1.515457
C 0.910631 3.579057 1.084466
O 1.641546 1.689327 2.334082
H -6.177409 -2.188076 0.158132
H -7.234510 -0.727472 0.180783
H -6.362511 -1.171911 -1.334824
H -5.330122 0.549769 0.836667
H -3.895556 -2.685936 -0.700430
H -3.850579 -1.561727 -2.102873
H -2.073341 -2.811975 0.833555
H 0.291798 -3.038913 -0.403775
H 0.303438 -2.642543 1.365177
H 2.738257 -1.535033 1.818095
H 6.497183 1.036636 1.882501
H 7.032284 -0.334424 0.809962
H 7.102577 -0.501215 2.604305
H 5.394530 1.127757 -0.336871
H 3.581301 1.680468 -1.908298
H -0.010927 1.295335 -3.469586
H 1.558572 0.454574 -3.798073
H 1.535331 2.117633 -3.073053
H 0.542289 -1.451136 -2.027291
H -1.520208 -0.591817 -2.794674
H -1.351426 1.546706 -1.030246
H -2.831231 1.045313 -1.816429
H -3.002971 1.190305 0.812385
H -2.127488 -0.783090 2.080446
H 0.112229 -0.324664 2.162353
H 1.235518 4.213592 1.935764
H 1.651422 3.658822 0.261785
H -0.075131 3.939162 0.722484
