51

C 5.407485 -0.230661 -0.811959
O 3.997349 -0.254002 -0.996293
C 3.096715 -0.002137 0.043071
O 3.524564 0.256040 1.201168
C 1.615497 -0.061969 -0.255936
C 1.180544 -1.515098 -0.610809
C -0.249723 -1.763394 -0.064013
C -0.801690 -3.107671 -0.567612
C -2.285126 -3.245898 -0.231248
C -3.089103 -2.097493 -0.848228
N -2.579642 -0.760479 -0.487761
C -3.021160 -0.241248 0.804308
C -2.000751 0.813638 1.230834
C -0.798340 0.688987 0.243055
C -0.635581 2.015832 -0.436517
C -1.415794 2.617110 -1.425286
C -1.127155 3.944342 -1.783908
C -0.090739 4.648435 -1.136978
C 0.663321 4.032042 -0.123827
C 0.357796 2.715805 0.219108
N 1.048854 1.908367 1.168404
C 0.652199 0.534852 0.857553
C 0.616195 -0.472548 2.027216
C -0.101933 -1.759264 1.513718
C -1.129925 -0.557714 -0.599796
H 5.904997 -0.459384 -1.776637
H 5.705484 -0.994779 -0.063086
H 5.729549 0.775861 -0.470369
H 1.486538 0.547913 -1.178080
H 1.881906 -2.262458 -0.174290
H 1.209198 -1.649634 -1.715339
H -0.678309 -3.179408 -1.671236
H -0.238844 -3.951933 -0.113117
H -2.441426 -3.281059 0.866467
H -2.658899 -4.207641 -0.644179
H -4.155662 -2.192749 -0.547580
H -3.061064 -2.196155 -1.955101
H -4.026141 0.219281 0.689882
H -3.100536 -1.045998 1.565022
H -2.487476 1.814358 1.175263
H -1.744436 0.678672 2.295203
H -2.228801 2.079187 -1.895061
H -1.710613 4.432300 -2.553701
H 0.124226 5.670373 -1.420855
H 1.464249 4.563914 0.372817
H 1.916357 2.197486 1.671781
H 0.129816 -0.061844 2.933391
H 1.641128 -0.738510 2.353644
H -1.082461 -1.847989 2.013611
H 0.484748 -2.647138 1.837755
H -0.897384 -0.368539 -1.672532
