77

C 3.623310 -0.760111 -3.044025
C 3.002569 0.126176 -2.246694
C 1.509291 -0.012381 -2.010475
O 1.232933 -0.161795 -0.630500
C 1.301237 -1.518261 -0.225191
O 1.671645 -1.547990 1.138781
C 2.078501 -2.853463 1.537770
C 2.173863 -2.853398 3.072648
O 2.895767 -3.969497 3.515899
C 1.131359 -3.974651 0.976915
O 0.952161 -5.032256 1.885647
C -0.236724 -3.372795 0.613410
O -1.105051 -4.361123 0.112453
C -0.082185 -2.199157 -0.393048
O -1.102445 -1.242772 -0.151718
C -2.269979 -1.481561 -0.924755
O -3.412647 -1.423400 -0.075308
C -3.944165 -0.118582 0.110571
C -2.983873 0.782823 0.925682
O -3.689387 1.872597 1.519205
C -4.478356 1.745121 2.666917
O -4.509470 0.659083 3.310249
C -5.312390 2.900593 3.119502
C -6.765721 2.555088 3.042304
O -7.315695 2.372216 1.922113
O -7.505581 2.415487 4.213006
C -4.462269 0.494631 -1.228346
O -4.300440 1.891348 -1.246512
C -3.770472 -0.147716 -2.451568
O -3.867078 0.671675 -3.591719
C -2.314702 -0.502895 -2.127001
O -1.711949 -1.107349 -3.247980
C 3.828734 1.224748 -1.583651
C 4.608634 0.655177 -0.386827
C 5.330829 1.727429 0.391354
C 4.965728 3.026265 0.369210
C 5.723577 4.014350 1.213581
C 3.908095 3.540637 -0.586947
C 2.993965 2.432355 -1.121148
H 4.691000 -0.693094 -3.224790
H 3.077983 -1.566951 -3.527365
H 1.005813 0.908342 -2.368024
H 1.066617 -0.834125 -2.619205
H 2.071684 -2.073780 -0.821310
H 3.106689 -3.032201 1.144811
H 2.699340 -1.926751 3.402347
H 1.151940 -2.854036 3.518905
H 2.973092 -3.874444 4.500340
H 1.581416 -4.373043 0.034450
H 1.734897 -5.634247 1.781633
H -0.685089 -2.976474 1.553492
H -0.680232 -4.756127 -0.694287
H -0.103393 -2.586224 -1.439031
H -2.297298 -2.513570 -1.347060
H -4.841741 -0.254066 0.750525
H -2.192165 1.197599 0.271372
H -2.480040 0.189785 1.721075
H -5.040226 3.167316 4.164211
H -5.114851 3.781686 2.472153
H -8.488361 2.174222 4.181780
H -5.550377 0.257085 -1.327920
H -5.053290 2.274746 -0.719784
H -4.301973 -1.098444 -2.685018
H -3.253823 1.444813 -3.469424
H -1.767543 0.432548 -1.854683
H -1.193693 -0.405217 -3.718554
H 4.559962 1.601819 -2.334950
H 5.354019 -0.086989 -0.746718
H 3.915268 0.132635 0.305576
H 6.114972 1.405983 1.071142
H 5.606516 3.758513 2.289256
H 6.800887 3.988702 0.945394
H 5.346550 5.046678 1.053947
H 3.277973 4.299074 -0.072648
H 4.418891 4.038085 -1.439072
H 2.288885 2.135974 -0.315685
H 2.408081 2.837532 -1.974604
