63

C -1.983052 -2.639535 -2.281408
C -0.664833 -2.144516 -1.679452
C 0.375663 -3.320980 -1.557355
C 1.603240 -2.657129 -0.838758
O 2.613494 -3.582877 -0.544043
O 2.082922 -1.664732 -1.723156
C 1.041243 -0.702304 -1.724165
O -0.036024 -1.191838 -2.516127
C 0.533054 -0.648540 -0.288434
C 0.664428 0.684998 0.483678
O 1.973429 0.834224 1.033418
C 3.080421 1.304352 0.316007
O 2.917535 1.836012 -0.815702
C 4.437216 1.186119 0.906867
C 4.585006 0.584293 2.171978
C 5.847002 0.452933 2.756188
C 6.979343 0.918709 2.089073
C 6.853854 1.515857 0.834294
C 5.592412 1.653423 0.234806
O 5.495072 2.250848 -1.022088
C 1.133374 -1.861764 0.420832
C -0.276531 -2.255987 0.876489
C -0.799950 -1.403441 -0.288951
O -2.001852 -0.716504 0.053645
C -2.384773 0.325018 -0.832651
O -2.016169 1.591204 -0.308383
C -2.834894 2.116885 0.736504
C -3.426289 3.455117 0.265580
O -3.968562 4.156796 1.350802
C -3.928729 1.168781 1.300267
O -3.319569 0.210905 2.131947
C -4.739892 0.501221 0.163355
O -5.367973 -0.675902 0.613298
C -3.900376 0.242253 -1.114586
O -4.244862 1.183118 -2.101192
H -2.603479 -3.126956 -1.499819
H -2.545542 -1.804360 -2.740219
H -1.786929 -3.375054 -3.090378
H -0.023732 -4.202103 -1.013546
H 0.679442 -3.673324 -2.568116
H 2.233897 -4.217819 0.117764
H 1.395411 0.272829 -2.113266
H 0.431338 1.546722 -0.175455
H -0.055501 0.691637 1.328371
H 3.724846 0.211228 2.713520
H 5.946561 -0.012323 3.728567
H 7.955845 0.815582 2.544136
H 7.740377 1.871910 0.324954
H 6.312285 2.590292 -1.515137
H 1.891959 -1.669329 1.209862
H -0.532421 -3.333865 0.872828
H -0.517017 -1.798170 1.862914
H -1.880565 0.239416 -1.815298
H -2.152408 2.360882 1.580524
H -4.210152 3.282200 -0.503255
H -2.617480 4.066568 -0.194458
H -4.345028 4.995428 0.976358
H -4.634558 1.771445 1.920878
H -3.998200 -0.078402 2.796264
H -5.559062 1.205242 -0.104907
H -4.668996 -1.372913 0.721680
H -4.146291 -0.775389 -1.494201
H -3.948974 0.811610 -2.973147
