78

C 2.649628 -3.654476 -1.936701
C 2.755970 -2.178685 -1.549577
C 3.344741 -1.315724 -2.724189
C 3.309031 0.149913 -2.158632
O 3.687941 1.100658 -3.115985
O 4.178431 0.161674 -1.042717
C 3.500945 -0.656993 -0.102249
O 3.656056 -2.017766 -0.469618
C 2.025279 -0.346698 -0.280591
C 1.253416 0.170656 0.957015
O 2.032190 1.120675 1.683039
C 2.109004 2.481726 1.374030
O 1.271358 3.004101 0.590505
C 3.170440 3.307639 1.988795
C 3.348351 4.651346 1.610576
C 4.372231 5.416112 2.178904
C 5.223512 4.852906 3.137448
O 6.254445 5.601001 3.701216
C 5.043918 3.522327 3.527445
C 4.028953 2.750316 2.954589
C 1.903765 0.472684 -1.557511
C 0.808141 -0.491054 -2.033581
C 1.414790 -1.518542 -1.051758
O 0.555237 -2.310795 -0.246648
C -0.441024 -2.968140 -1.009422
O -1.558431 -2.097770 -1.129847
C -2.697813 -2.793380 -1.595256
C -3.714799 -1.791145 -2.166713
O -3.694375 -0.571708 -1.423848
C -4.763685 -0.082831 -0.665951
O -5.844146 -0.732331 -0.593052
C -4.617994 1.200939 0.053419
C -5.661601 1.698322 0.852224
C -5.531781 2.928962 1.510481
O -6.573669 3.410992 2.301475
C -4.351034 3.677017 1.368936
O -4.207970 4.916077 1.995972
C -3.303122 3.182708 0.582718
O -2.133952 3.929513 0.444558
C -3.434588 1.948783 -0.068635
C -3.265436 -3.681423 -0.455779
O -4.220947 -2.979000 0.298693
C -2.127845 -4.155632 0.481589
O -2.488388 -5.375171 1.079149
C -0.800110 -4.303425 -0.283112
O -0.907379 -5.358480 -1.206541
H 2.004108 -3.779245 -2.831053
H 2.242722 -4.247557 -1.090843
H 3.658233 -4.050214 -2.181581
H 2.775713 -1.425879 -3.670969
H 4.394921 -1.615426 -2.934514
H 4.635853 0.912742 -3.344204
H 3.880245 -0.480836 0.925849
H 1.059675 -0.685551 1.635799
H 0.268410 0.600095 0.672410
H 2.706154 5.107570 0.866603
H 4.502885 6.446418 1.873470
H 6.440454 6.556681 3.411535
H 5.696450 3.081891 4.270828
H 3.917171 1.719210 3.269460
H 1.635181 1.541321 -1.437631
H 0.812735 -0.761887 -3.108165
H -0.189776 -0.117298 -1.713664
H -0.072634 -3.209726 -2.033077
H -2.422472 -3.461604 -2.448675
H -4.731675 -2.237024 -2.218352
H -3.417548 -1.549299 -3.208245
H -6.580017 1.134574 0.972169
H -7.433197 2.887704 2.426637
H -4.947387 5.328957 2.549415
H -1.357559 3.599402 -0.116411
H -2.616404 1.586605 -0.679794
H -3.748920 -4.567855 -0.934047
H -4.746162 -3.655839 0.800913
H -1.979939 -3.376904 1.272400
H -1.948768 -5.462714 1.905355
H -0.004651 -4.557946 0.454922
H 0.008510 -5.536241 -1.550400
