45

C -1.064036 3.002332 -0.935572
C -0.411873 1.636905 -0.659659
C -1.127413 0.762353 0.425270
C -2.664467 0.679267 0.093384
C -3.275566 -0.730127 0.236494
C -2.489303 -1.792940 -0.584445
N -1.011623 -1.597060 -0.580811
C -0.223181 -2.818943 -0.251752
C 0.942922 -2.397898 0.698359
C 0.893678 -0.872089 0.634901
C 1.349039 -0.010364 1.803714
N 2.441196 0.646876 1.546668
C 2.804793 0.362205 0.207614
C 3.867613 0.928096 -0.494225
C 3.978969 0.653409 -1.867412
C 3.020848 -0.155825 -2.510553
C 1.946320 -0.696033 -1.784604
C 1.855714 -0.403817 -0.419318
C 0.310887 0.636534 2.700571
C -0.827923 1.354544 1.873887
C -0.589934 -0.685819 0.462757
H -1.344784 3.522793 0.001768
H -0.345999 3.645883 -1.486873
H -1.964737 2.898872 -1.573702
H 0.623032 1.859722 -0.336741
H -0.360630 1.078504 -1.619511
H -3.241487 1.399390 0.712253
H -2.850911 0.957040 -0.965038
H -4.331961 -0.710524 -0.109265
H -3.295753 -1.017262 1.310214
H -2.787671 -2.798800 -0.218427
H -2.830535 -1.732357 -1.639628
H -0.828607 -3.601802 0.255551
H 0.186196 -3.250640 -1.189244
H 0.735193 -2.744119 1.735674
H 1.916334 -2.826614 0.370140
H 4.579656 1.574569 0.001868
H 4.797208 1.075302 -2.436297
H 3.111873 -0.360375 -3.569312
H 1.210437 -1.315153 -2.277466
H 0.792945 1.361955 3.391539
H -0.141349 -0.156969 3.333574
H -0.568398 2.431239 1.811205
H -1.750345 1.307714 2.492018
H -1.036371 -1.099975 1.410434
