73

O 3.819652 0.229087 2.125858
C 4.744696 0.623752 1.362957
O 4.447814 1.037960 0.057080
C 3.151334 0.909627 -0.527528
C 2.872235 -0.550245 -0.932215
O 1.461048 -0.728159 -0.977564
C 0.994358 -1.830000 -1.756578
O -0.131073 -2.397081 -1.104604
C -1.357290 -1.823229 -1.522623
O -2.417349 -2.665910 -1.082012
C -3.745342 -2.235406 -1.065171
C -4.050427 -0.940797 -1.163515
C -2.986608 0.141392 -1.274801
C -3.192064 1.251858 -0.223381
O -4.559902 1.448048 0.137801
C -5.491937 2.086429 -0.689036
O -5.144755 2.510090 -1.826946
C -6.886041 2.259837 -0.222329
C -7.246902 1.886818 1.083877
C -8.557686 2.068208 1.535757
C -9.525254 2.619998 0.691789
O -10.823176 2.804011 1.162111
C -9.178363 2.987156 -0.614805
C -7.866044 2.812859 -1.067867
C -2.400096 0.799363 0.993287
O -1.025902 1.115909 0.913260
C -1.401399 -0.193418 0.545139
C -1.006939 -1.274940 1.560613
O 0.379941 -1.455197 1.543600
C -1.566188 -0.387920 -0.974853
C 2.036700 -2.962944 -1.975336
O 2.304013 -3.696100 -0.798026
C 3.338679 -2.407282 -2.613114
O 4.452436 -3.204661 -2.285092
C 3.558522 -0.910721 -2.276452
O 4.925446 -0.569281 -2.298541
C 6.142633 0.645397 1.846272
C 6.444283 0.334926 3.184800
C 7.767596 0.349939 3.635879
C 8.806050 0.670548 2.757448
O 10.120035 0.681708 3.220941
C 8.516148 0.977608 1.421364
C 7.192791 0.965837 0.968130
H 2.383376 1.261611 0.197407
H 3.087720 1.572484 -1.417832
H 3.279998 -1.202722 -0.130599
H 0.740895 -1.441587 -2.771508
H -1.420600 -1.793211 -2.635171
H -4.537425 -2.966395 -0.958568
H -5.096276 -0.663686 -1.199191
H -3.029991 0.570534 -2.301149
H -2.763906 2.213182 -0.592074
H -6.518121 1.467103 1.763852
H -8.816121 1.786771 2.547302
H -11.545477 3.212161 0.578964
H -9.920330 3.416556 -1.277172
H -7.619985 3.115304 -2.077224
H -2.802846 0.759782 2.027780
H -1.313121 -0.983180 2.590191
H -1.528484 -2.225358 1.315282
H 0.560406 -2.257715 2.099016
H -0.842179 0.285290 -1.486534
H 1.591721 -3.680634 -2.698999
H 2.094692 -3.145539 -0.003849
H 3.221626 -2.468156 -3.718191
H 4.624912 -3.104874 -1.312503
H 3.060689 -0.307666 -3.069044
H 5.348140 -0.934377 -1.478822
H 5.658378 0.083572 3.884974
H 7.984585 0.111443 4.669903
H 10.894615 0.909544 2.608886
H 9.314765 1.224397 0.733438
H 6.992671 1.200296 -0.069776
