30

O -2.678789 -1.614108 0.688605
C -2.465810 -0.415245 0.364495
O -3.487732 0.483750 0.162129
C -2.990967 1.751084 -0.216310
C -1.470793 1.684873 0.005412
C -1.109660 0.177145 0.161310
C -0.217349 -0.082025 1.399525
C 1.203721 0.465952 1.203465
C 1.887576 -0.095596 -0.060809
C 2.347750 -1.560347 0.112095
O 3.317863 -1.659856 1.120317
C 0.998482 0.100026 -1.309900
C -0.455142 -0.397685 -1.129253
O -0.478733 -1.803304 -1.102189
H -3.215605 1.925542 -1.290553
H -3.459055 2.547243 0.400923
H -0.941795 2.176895 -0.837366
H -1.228200 2.253374 0.930196
H -0.665295 0.391744 2.300938
H -0.163825 -1.171759 1.609611
H 1.159120 1.574129 1.125826
H 1.812346 0.234192 2.103902
H 2.808085 0.507182 -0.229700
H 2.763895 -1.945997 -0.846682
H 1.497711 -2.215620 0.384935
H 4.164972 -1.312157 0.736605
H 0.982967 1.181800 -1.561499
H 1.458975 -0.406487 -2.186063
H -1.050123 -0.049208 -2.007392
H -0.324589 -2.114033 -2.032576
