47

C -2.502450 2.624320 -0.983598
C -2.180569 1.123854 -0.911257
C -2.784188 0.448448 0.362811
C -4.081755 -0.336322 0.073939
O -5.155745 0.548056 -0.105649
C -1.672677 -0.391008 1.059254
C -0.603696 0.629219 1.512418
C -0.007284 1.329731 0.252575
C 1.451119 0.999881 0.121589
N 2.468033 1.570533 0.806145
C 3.568579 0.888995 0.429515
C 4.880081 1.103210 0.850547
C 5.884459 0.268994 0.324686
C 5.560171 -0.750439 -0.599097
C 4.227873 -0.947955 -1.005939
C 3.256193 -0.107242 -0.467596
C 1.893653 -0.051868 -0.652974
C 1.000782 -0.856765 -1.544427
C -0.486959 -0.586572 -1.190876
C -0.946556 -1.374649 0.086376
C -1.748784 -2.647437 -0.244991
O -0.874819 -3.652784 -0.680468
N -0.712716 0.879953 -0.992547
H -3.595261 2.767336 -1.121601
H -1.977171 3.082890 -1.848042
H -2.201825 3.153745 -0.056008
H -2.653179 0.690037 -1.822032
H -3.079369 1.238016 1.092339
H -3.989651 -0.932158 -0.851797
H -4.304873 -1.039583 0.908688
H -5.446282 0.833633 0.799805
H -2.072378 -0.925103 1.949233
H 0.178143 0.112180 2.113739
H -1.055139 1.389584 2.187192
H -0.086150 2.432040 0.358567
H 2.409800 2.360705 1.486520
H 5.120063 1.886555 1.557766
H 6.913086 0.409644 0.630132
H 6.342080 -1.384863 -0.995653
H 3.969124 -1.727663 -1.710624
H 1.238896 -1.937944 -1.451933
H 1.189258 -0.547808 -2.594863
H -1.073879 -0.928313 -2.073629
H -0.046254 -1.736428 0.636317
H -2.283866 -2.999149 0.665331
H -2.491170 -2.457795 -1.044139
H -1.436749 -4.451713 -0.856927
