45

C -1.315799 2.171034 -0.468345
C -2.355117 1.334909 -0.354532
C -3.793468 1.778905 -0.348300
O -4.107037 2.419567 -1.556144
C -4.592331 0.465205 -0.190803
C -3.578791 -0.480006 0.438252
C -3.828846 -1.953009 0.369505
C -2.781279 -2.761345 0.585884
O -1.472201 -2.234720 0.702596
C -1.142247 -0.838134 0.523589
O 0.060172 -0.743691 -0.210358
C 1.189447 -0.993943 0.612218
O 1.706110 0.239853 1.099848
C 2.561612 0.856208 0.155075
C 2.794060 2.313680 0.580139
O 3.530485 3.005245 -0.394747
C 3.895811 0.060527 0.071811
O 4.567535 0.330511 -1.134147
C 3.665798 -1.465254 0.243018
O 3.872555 -1.834065 1.584296
C 2.233382 -1.855837 -0.160310
O 2.069028 -1.697554 -1.549572
C -2.272811 -0.157051 -0.267902
H -1.480298 3.240877 -0.539751
H -0.299622 1.799826 -0.496907
H -3.970113 2.455291 0.520881
H -5.025212 2.781317 -1.445842
H -5.482372 0.603828 0.464661
H -4.910300 0.073927 -1.185535
H -3.501318 -0.212669 1.521195
H -4.826651 -2.351643 0.248654
H -2.931771 -3.832414 0.650787
H -1.060726 -0.342751 1.518972
H 0.926821 -1.601105 1.513975
H 2.068176 0.887552 -0.844538
H 3.300585 2.350970 1.570369
H 1.812078 2.820430 0.694678
H 4.487989 2.888432 -0.166994
H 4.562709 0.394702 0.895142
H 3.979550 0.053377 -1.882063
H 4.378733 -2.030687 -0.404824
H 4.852859 -1.927345 1.709000
H 2.066588 -2.929321 0.108158
H 2.427619 -2.521505 -1.977983
H -2.281392 -0.562127 -1.307301
