78

C 0.028422 2.821666 -3.228931
C -0.002921 2.130049 -1.896836
C -1.142263 1.726471 -1.287547
C -2.507613 2.051252 -1.887797
N -3.660725 1.314375 -1.273135
C -4.893894 2.106963 -1.517993
C -3.868166 -0.056858 -1.852129
C -2.580050 -0.893564 -1.954860
C -2.278430 -1.135223 -0.460557
C -2.459486 -2.560849 -0.003499
C -1.847454 -3.725441 -0.475330
C -2.120998 -4.936989 0.178221
C -2.993580 -4.969086 1.282715
C -3.608877 -3.791392 1.736296
C -3.322183 -2.592243 1.077142
N -3.911022 -1.316557 1.331201
C -5.094431 -1.128047 2.168372
C -3.586924 -0.535345 0.135306
O -4.544878 -0.755121 -0.859587
C -3.552847 0.991157 0.185434
C -2.307840 1.546244 0.866581
C -1.063894 1.103203 0.095539
C -0.927141 -0.468111 0.094259
C 0.296702 -0.905450 -0.766058
O 1.498933 -0.344229 -0.242064
C 2.750571 -0.540934 -0.833864
O 2.855217 -1.258462 -1.866910
C 3.947377 0.100896 -0.246679
C 3.832902 0.874194 0.918991
C 4.957429 1.483878 1.478428
C 6.222758 1.331476 0.880742
O 7.377201 1.925512 1.415732
C 7.400896 2.721606 2.595733
C 6.348941 0.563996 -0.287506
O 7.622673 0.434812 -0.864831
C 7.900518 -0.297042 -2.054807
C 5.209894 -0.049632 -0.845761
C -0.587500 -0.938324 1.526437
O -0.402740 -2.166079 1.762496
O -0.343741 -0.012550 2.550047
C -0.030073 -0.401765 3.880475
H 1.074484 3.097130 -3.479807
H -0.582014 3.748686 -3.196949
H -0.354804 2.143276 -4.019836
H 0.953604 1.963039 -1.410041
H -2.638197 3.151320 -1.765224
H -2.498198 1.860672 -2.984404
H -5.804638 1.566036 -1.173056
H -4.851428 3.076997 -0.973669
H -5.019548 2.321307 -2.603146
H -4.430456 -0.054477 -2.813636
H -2.812927 -1.851280 -2.471755
H -1.801312 -0.394300 -2.553583
H -1.176255 -3.698452 -1.323498
H -1.656215 -5.851019 -0.166874
H -3.198499 -5.908718 1.779388
H -4.294483 -3.820096 2.572675
H -5.439507 -0.073544 2.142203
H -4.844812 -1.387561 3.222132
H -5.919055 -1.784651 1.810391
H -4.432994 1.358376 0.759865
H -2.296509 1.213344 1.923049
H -2.363771 2.657715 0.891178
H -0.189257 1.550894 0.621672
H 0.391876 -2.011226 -0.759995
H 0.200555 -0.599112 -1.824337
H 2.873172 1.008725 1.402415
H 4.831863 2.073290 2.377162
H 6.757030 3.617060 2.463710
H 8.441209 3.057115 2.785173
H 7.056089 2.124231 3.466676
H 7.639310 -1.367283 -1.914729
H 8.984279 -0.224684 -2.279323
H 7.332059 0.129080 -2.909045
H 5.302310 -0.645754 -1.744191
H 0.082524 0.505497 4.505078
H 0.922222 -0.972716 3.895880
H -0.848472 -1.027374 4.294986
