41

C -2.189337 -1.820682 -2.712176
C -2.134226 -1.544166 -1.204324
C -3.378510 -0.758690 -0.699741
Cl -4.643058 -1.859929 -0.069597
C -2.893581 0.231330 0.380339
C -2.003288 -0.595550 1.398185
C -0.650971 -0.877793 0.658189
C 0.814997 -0.615976 0.819987
N 1.680084 -1.125434 1.721766
C 2.850843 -0.505844 1.451698
C 4.060395 -0.667377 2.125773
C 5.159940 0.102726 1.702619
C 5.029555 1.013999 0.630260
C 3.798779 1.164960 -0.033888
C 2.730760 0.383648 0.398982
C 1.425325 0.316180 -0.026461
C 0.629797 1.125358 -1.052145
C -0.865129 0.596566 -1.206480
C -2.040120 1.324239 -0.399294
C -1.595681 2.433616 0.523938
O -1.282807 3.523445 0.071334
N -0.876031 -0.840285 -0.821980
H -2.338346 -0.889996 -3.296803
H -1.246765 -2.306951 -3.041546
H -3.034584 -2.505966 -2.935378
H -2.119475 -2.545765 -0.716181
H -3.852763 -0.192361 -1.532069
H -3.760016 0.698937 0.897191
H -2.475776 -1.576795 1.615261
H -1.975917 -0.104564 2.415019
H -0.548326 0.137747 1.088772
H 1.480756 -1.823310 2.472489
H 4.151527 -1.360059 2.952393
H 6.112302 -0.000703 2.206087
H 5.882673 1.602593 0.318970
H 3.687873 1.863872 -0.852920
H 0.670302 2.201238 -0.797581
H 1.146479 1.010567 -2.029012
H -1.103446 0.693084 -2.286779
H -2.717215 1.805210 -1.141336
H -1.587020 2.288882 1.599304
