45

C -4.781290 2.687163 0.086512
C -3.580551 1.824814 -0.180186
C -3.458614 0.551303 0.261289
C -4.597478 -0.128504 0.990224
O -4.177931 -1.315602 1.655144
C -3.171173 -2.158503 1.182168
O -3.092165 -3.439625 1.733435
C -2.283740 -1.707384 0.275503
C -1.139944 -2.492012 -0.213511
O -1.270681 -3.690022 -0.584018
N 0.113107 -1.804789 -0.349517
C 1.010516 -2.130477 -1.477709
C 2.483056 -1.855984 -1.139841
C 2.602673 -0.507841 -0.516574
C 1.604427 0.074246 0.236045
N 2.031511 1.225932 0.804589
C 3.309970 1.366996 0.403830
C 4.196028 2.385960 0.750265
C 5.509280 2.314314 0.249296
C 5.906558 1.233391 -0.569845
C 4.994274 0.213959 -0.898575
C 3.697941 0.318980 -0.397570
C 0.278475 -0.587062 0.482922
C -0.905058 0.407081 0.294796
C -2.239283 -0.258461 -0.155013
H -4.885977 2.869960 1.176363
H -5.698842 2.199375 -0.304593
H -4.657614 3.665841 -0.422643
H -2.783877 2.262354 -0.775368
H -5.033008 0.547634 1.754732
H -5.389354 -0.386947 0.255693
H -2.338340 -4.087494 1.548744
H 0.715133 -1.517028 -2.356592
H 0.912344 -3.200370 -1.761445
H 3.095661 -1.906427 -2.065121
H 2.849887 -2.619236 -0.420784
H 1.496761 1.851372 1.447777
H 3.886822 3.203841 1.388121
H 6.221787 3.089838 0.498397
H 6.920996 1.187064 -0.943901
H 5.292266 -0.621256 -1.518950
H 0.282301 -0.911673 1.547251
H -1.059075 0.944177 1.257257
H -0.630470 1.173845 -0.463656
H -2.237310 -0.272742 -1.269140
