76

C 3.460660 -1.833417 -3.349263
C 3.246492 -1.276949 -2.150221
C 3.164519 -2.083213 -0.854548
C 2.099302 -3.207133 -0.971591
C 4.535830 -2.764721 -0.580222
C 5.718674 -1.790601 -0.409169
C 5.737102 -1.165462 0.965192
C 5.701794 0.161120 1.216411
C 5.599382 1.167175 0.095996
C 5.762705 0.646521 2.620192
O 5.865607 -0.166530 3.578879
O 5.704758 2.009690 2.896065
O 2.890972 -1.222800 0.252886
C 1.591724 -0.642147 0.245181
O 0.729258 -1.431254 1.037472
C -0.636281 -1.087027 0.824020
C -1.441704 -1.741212 1.967831
O -2.812982 -1.782150 1.677824
C -0.871798 0.468895 0.705074
O -2.144046 0.822142 1.249669
C -2.880983 1.830836 0.548563
C -4.192496 2.016739 1.334837
C -2.159372 3.174343 0.650058
C -2.136601 4.117842 -0.302286
C -3.231170 1.442034 -0.936969
C -3.702819 -0.006603 -1.181164
C -5.148967 -0.230640 -0.822319
C -6.195219 0.066323 -1.621725
C -5.998422 0.583631 -3.028422
C -7.571657 -0.238617 -1.158630
O -8.546859 -0.134050 -1.950728
O -7.805267 -0.641210 0.154757
C 0.279396 1.213909 1.421527
O 0.204833 0.959360 2.803546
C 1.658145 0.776965 0.848269
O 2.642895 0.832822 1.849525
H 3.583765 -2.904903 -3.464087
H 3.516904 -1.207135 -4.233663
H 3.143671 -0.196659 -2.104834
H 1.931416 -3.679610 0.019590
H 1.130895 -2.814301 -1.345781
H 2.426315 -4.001363 -1.675971
H 4.782594 -3.451860 -1.419200
H 4.458192 -3.404305 0.327694
H 5.731213 -1.049228 -1.231556
H 6.659400 -2.372233 -0.511792
H 5.808150 -1.860719 1.793322
H 4.684239 0.977421 -0.502500
H 5.537324 2.208658 0.471243
H 6.494506 1.097632 -0.557139
H 5.740575 2.350329 3.849493
H 1.190388 -0.546428 -0.793549
H -0.961481 -1.568410 -0.125355
H -1.067434 -2.775920 2.147358
H -1.291344 -1.177878 2.911982
H -2.949865 -2.541382 1.052899
H -0.792479 0.726241 -0.370782
H -4.709023 1.049233 1.485103
H -3.985473 2.419868 2.350632
H -4.879853 2.719791 0.815761
H -1.733865 3.437603 1.614674
H -1.644294 5.064716 -0.104940
H -2.599587 3.983213 -1.271885
H -4.004860 2.139586 -1.322025
H -2.347765 1.613363 -1.587474
H -3.538786 -0.275966 -2.246825
H -3.080687 -0.709521 -0.605135
H -5.330583 -0.711424 0.131067
H -5.177967 1.324427 -3.087581
H -6.911780 1.094396 -3.398222
H -5.767772 -0.266147 -3.704492
H -8.743166 -0.848348 0.476851
H 0.191106 2.304929 1.236117
H 0.592617 1.746171 3.268910
H 1.941833 1.468812 0.019242
H 2.855553 1.792737 1.987477
