52

C 4.645978 -0.687900 1.879708
C 3.350988 0.059669 1.540136
C 3.198731 0.411321 0.028453
O 4.437961 0.917008 -0.420775
C 2.127827 1.503897 -0.157479
C 0.726663 1.053227 0.296008
C -0.332080 2.041135 -0.261971
C -1.729348 1.578397 0.060631
C -2.704134 2.555503 0.601107
O -3.656231 2.182722 1.338568
O -2.533505 3.914777 0.318398
C -3.410354 4.918899 0.814685
C -2.005860 0.279421 -0.153987
N -3.200703 -0.397234 0.250634
C -2.880233 -1.775460 0.208790
C -3.712951 -2.825847 0.593359
C -3.218210 -4.136758 0.500683
C -1.912364 -4.372133 0.027598
C -1.092353 -3.298277 -0.355757
C -1.598285 -1.998921 -0.246714
C -0.953012 -0.694430 -0.639794
C -0.703783 -0.638108 -2.156876
C 0.813149 -0.769570 -2.313698
N 1.352534 -1.059780 -0.980986
C 2.808171 -0.838027 -0.818189
C 0.429239 -0.466326 -0.007914
H 4.720973 -1.643991 1.324059
H 5.533167 -0.060612 1.651460
H 4.660918 -0.919242 2.965738
H 3.345799 0.996103 2.140279
H 2.499364 -0.556185 1.891664
H 4.343404 1.197535 -1.369071
H 2.420301 2.417984 0.405862
H 2.098278 1.794090 -1.230698
H 0.693356 1.163532 1.403985
H -0.234021 2.143565 -1.363481
H -0.143065 3.044392 0.178865
H -3.069651 5.910957 0.453855
H -4.442742 4.737301 0.447705
H -3.400536 4.917048 1.925254
H -4.123739 0.002001 0.525165
H -4.714586 -2.636285 0.956642
H -3.843762 -4.970133 0.792860
H -1.540628 -5.385836 -0.045769
H -0.093874 -3.476363 -0.732511
H -1.223281 -1.459251 -2.699842
H -1.048259 0.322791 -2.596490
H 1.061294 -1.602208 -3.006439
H 1.234346 0.176992 -2.718368
H 3.289127 -0.775940 -1.820271
H 3.236387 -1.755269 -0.367847
H 0.493594 -1.040179 0.942778
