47

C -3.104816 1.156497 -1.932053
C -3.306372 0.392900 -0.606828
O -3.798575 1.265437 0.385268
C -4.262605 -0.794706 -0.780898
C -3.847591 -1.840450 0.253792
C -2.448893 -1.451229 0.762070
C -2.494302 -1.123238 2.239443
C -2.042282 0.031416 2.728967
O -1.465062 0.990289 1.894673
C -1.005680 0.677802 0.582026
O 0.256228 0.039186 0.695500
C 1.121418 0.377551 -0.379187
O 2.001952 -0.713903 -0.620701
C 3.106542 -0.695328 0.262674
C 3.771798 -2.077953 0.258624
O 4.864548 -2.089690 1.135033
C 4.080399 0.449970 -0.131710
O 5.011917 0.013373 -1.091207
C 3.301885 1.688463 -0.661015
O 3.290644 1.744538 -2.068830
C 1.860683 1.728578 -0.109775
O 1.892840 1.994052 1.271516
C -2.003553 -0.272095 -0.125595
H -2.659030 0.498398 -2.708741
H -2.435061 2.029005 -1.780203
H -4.080418 1.529159 -2.310878
H -4.650055 1.655103 0.054155
H -4.152890 -1.235867 -1.797065
H -5.325588 -0.496693 -0.647237
H -3.818881 -2.848253 -0.215913
H -4.600025 -1.870635 1.073597
H -1.746176 -2.303296 0.626234
H -2.906837 -1.854984 2.923465
H -2.137256 0.239845 3.786501
H -0.940112 1.641491 0.026938
H 0.548936 0.499453 -1.329088
H 2.757485 -0.527065 1.310231
H 4.102472 -2.343272 -0.770872
H 3.026811 -2.836331 0.588425
H 5.258247 -2.998664 1.071719
H 4.627706 0.743852 0.795298
H 5.744243 0.683714 -1.104083
H 3.833248 2.600647 -0.310981
H 2.891262 0.902885 -2.408871
H 1.300274 2.545080 -0.624073
H 2.073904 2.964758 1.376036
H -1.493382 -0.709790 -1.014716
