45

C -5.294289 1.231775 -1.296115
C -4.434514 0.434834 -0.360030
C -3.089715 0.449476 -0.419077
C -2.297437 1.260032 -1.424176
N -0.848994 1.008257 -1.219922
C -0.453212 1.420095 0.163261
C -1.307897 0.666043 1.229710
C -2.227646 -0.352817 0.526509
C -1.372222 -1.310594 -0.353999
C -0.546401 -2.308898 0.494554
O -1.364239 -2.986107 1.411351
C -0.556607 -0.448908 -1.408191
C 0.985637 -0.662237 -1.441956
C 1.633378 0.104391 -0.332496
C 1.003086 1.116510 0.359271
N 1.819379 1.660388 1.289762
C 2.988980 1.003291 1.154937
C 4.158569 1.203208 1.885305
C 5.272044 0.398913 1.578758
C 5.196501 -0.580594 0.561035
O 6.314517 -1.362017 0.279689
C 3.997923 -0.763165 -0.160274
C 2.914348 0.048373 0.166983
H -5.114415 0.912833 -2.344189
H -6.364517 1.064950 -1.053332
H -5.070943 2.314228 -1.191057
H -4.929725 -0.173529 0.391506
H -2.587222 0.975185 -2.458961
H -2.513796 2.342738 -1.293830
H -0.594079 2.517909 0.276857
H -0.679981 0.153574 1.990844
H -1.933080 1.399302 1.786229
H -2.839342 -0.908977 1.270656
H -2.088987 -1.938781 -0.932174
H 0.247703 -1.783933 1.061562
H -0.053489 -3.054387 -0.168254
H -1.908106 -3.630603 0.887280
H -0.912751 -0.749716 -2.420375
H 1.377747 -0.257907 -2.399858
H 1.266794 -1.733058 -1.405774
H 1.587697 2.415282 1.973219
H 4.210960 1.953894 2.663201
H 6.194282 0.533326 2.129303
H 6.294688 -2.072727 -0.442352
H 3.919372 -1.509852 -0.940146
