46

C -3.176606 -0.586675 2.313114
C -2.454414 -1.057314 1.039451
C -3.080432 -0.592846 -0.329641
C -4.060340 0.606880 -0.258331
O -3.443387 1.795256 0.213817
C -2.339578 2.175227 -0.596253
O -2.778989 2.541269 -1.881299
C -1.275413 1.050516 -0.659473
C -1.925831 -0.208725 -1.273643
C -0.896209 -1.354449 -1.332651
C -0.291963 -1.588684 0.080385
C 1.167782 -1.248288 0.079829
N 2.174897 -2.031706 -0.367988
C 3.280636 -1.266351 -0.273578
C 4.586169 -1.624050 -0.603717
C 5.598142 -0.663011 -0.421921
C 5.290104 0.623305 0.079562
O 6.312387 1.553719 0.249889
C 3.958358 0.958512 0.402730
C 2.980019 -0.013969 0.209915
C 1.619499 0.007054 0.416848
C 0.740555 1.073694 0.981683
C -0.755184 0.703358 0.785139
N -0.995918 -0.743374 1.092279
H -3.204275 0.516196 2.404289
H -2.655932 -0.993322 3.205930
H -4.218790 -0.970387 2.320818
H -2.565114 -2.166695 1.072321
H -3.637011 -1.447805 -0.775662
H -4.906767 0.354776 0.412996
H -4.515988 0.782852 -1.258550
H -1.870952 3.065539 -0.117398
H -2.023506 3.014120 -2.318751
H -0.439361 1.379615 -1.316821
H -2.305324 -0.005526 -2.300210
H -0.114675 -1.107418 -2.086050
H -1.399410 -2.282794 -1.681553
H -0.387365 -2.662132 0.357965
H 2.106884 -3.012166 -0.721196
H 4.816521 -2.610125 -0.985805
H 6.621808 -0.913781 -0.668736
H 6.126696 2.483874 0.606504
H 3.702205 1.938323 0.785243
H 0.957060 1.156050 2.068588
H 0.970570 2.052898 0.509453
H -1.291556 1.318561 1.538750
