83

C 2.696004 -3.898928 0.647762
C 3.327952 -2.560584 0.267229
C 4.103080 -2.662999 -1.097538
C 4.610661 -1.195383 -1.343905
O 5.255215 -1.054244 -2.580176
O 5.501302 -0.915497 -0.284365
C 4.647816 -0.863867 0.848417
O 4.295981 -2.183847 1.227325
C 3.361415 -0.218532 0.362726
C 2.907185 1.086635 1.050603
O 3.849390 2.130888 0.800089
C 4.919766 2.438503 1.648308
O 4.939740 1.996631 2.831869
C 6.033442 3.276044 1.150385
C 7.092153 3.648580 2.002114
C 8.155721 4.414277 1.516531
C 8.176071 4.815730 0.178611
C 7.132037 4.452462 -0.675669
C 6.065403 3.686620 -0.195543
C 3.446570 -0.166045 -1.155409
C 2.057217 -0.817372 -1.223849
C 2.332941 -1.338421 0.205654
O 1.302165 -1.275654 1.183398
C 0.090832 -1.847223 0.716161
O -0.695693 -0.826844 0.104914
C -2.109418 -0.973264 0.223816
C -2.768953 -0.205348 -0.931787
O -4.173979 -0.342525 -0.870012
C -4.799386 0.551035 -1.778212
O -4.944539 1.843003 -1.202517
C -5.754901 1.812373 -0.036195
C -5.739007 3.205708 0.612885
O -6.274442 4.176244 -0.247812
C -7.194942 1.365663 -0.377724
O -7.964779 1.300691 0.795557
C -7.152579 -0.020793 -1.048456
O -8.436081 -0.411833 -1.472811
C -6.160723 -0.011572 -2.227275
O -5.985105 -1.312292 -2.726244
C -2.604768 -2.450928 0.293849
O -2.508188 -3.099330 -0.952900
C -1.867658 -3.263532 1.393177
O -2.728596 -3.532283 2.471821
C -0.610795 -2.533404 1.903385
O -0.937537 -1.569964 2.876077
H 1.944082 -4.205507 -0.108243
H 2.222556 -3.828758 1.648954
H 3.481063 -4.683279 0.696127
H 4.972090 -3.351229 -0.997692
H 3.470016 -3.046245 -1.924305
H 4.575579 -1.237249 -3.279221
H 5.134864 -0.334510 1.689875
H 1.924929 1.400697 0.636905
H 2.767848 0.919854 2.140701
H 7.101476 3.342559 3.040349
H 8.968562 4.692950 2.175412
H 9.001698 5.406487 -0.196499
H 7.151212 4.761383 -1.712881
H 5.273164 3.406673 -0.880376
H 3.573285 0.843546 -1.604122
H 1.900476 -1.578020 -2.015015
H 1.266167 -0.035883 -1.254851
H 0.287363 -2.636200 -0.044783
H -2.432262 -0.462975 1.159268
H -2.391334 -0.607065 -1.898996
H -2.467257 0.864939 -0.847513
H -4.199608 0.663216 -2.714191
H -5.324726 1.113387 0.716891
H -4.695155 3.473371 0.894785
H -6.333803 3.190682 1.551941
H -5.573116 4.384916 -0.920902
H -7.636340 2.105622 -1.087404
H -8.916138 1.374898 0.522422
H -6.802866 -0.765037 -0.297485
H -8.746732 0.250388 -2.142878
H -6.550583 0.652586 -3.035344
H -6.783859 -1.519645 -3.277660
H -3.686041 -2.422686 0.553096
H -1.587706 -2.973433 -1.294627
H -1.525366 -4.233122 0.957099
H -3.348367 -4.249452 2.172213
H 0.082623 -3.287182 2.343754
H -0.985785 -2.039254 3.750929
