54

C -2.299491 -2.245118 0.399213
C -2.020931 -1.606247 -0.972638
C -2.957977 -2.204296 -2.035255
C -2.072606 -0.044076 -0.967280
C -3.417678 0.545100 -0.440754
C -3.292626 1.132866 0.970769
C -2.235785 2.279908 1.051074
C -1.676001 2.314987 2.488721
O -2.863749 3.521017 0.824905
C -1.087051 2.085207 -0.000488
O 0.091437 2.724183 0.427985
C -0.826592 0.585464 -0.270828
O 0.298895 0.453352 -1.130859
C 1.344109 -0.291889 -0.527256
O 1.896854 0.477046 0.538545
C 3.079236 -0.093621 1.083330
C 2.799781 -1.431574 1.803859
O 1.678915 -1.298420 2.634157
C 4.237808 -0.138928 0.035642
O 4.925968 -1.365760 0.075560
C 3.709194 0.114138 -1.389735
O 4.659774 -0.272239 -2.349092
C 2.406094 -0.670226 -1.603285
O 1.915575 -0.501845 -2.912496
H -3.333243 -2.033320 0.741657
H -2.179650 -3.347394 0.331228
H -1.583332 -1.885065 1.164043
H -0.996298 -1.911940 -1.274210
H -2.744993 -1.763319 -3.032215
H -4.024348 -2.028969 -1.785412
H -2.795826 -3.301013 -2.109404
H -2.006653 0.270089 -2.034679
H -3.754195 1.353064 -1.126843
H -4.229579 -0.209399 -0.442865
H -4.285399 1.510494 1.300230
H -3.025502 0.302719 1.661163
H -1.029186 3.205818 2.638551
H -1.081396 1.402698 2.708914
H -2.507380 2.380074 3.223575
H -3.322301 3.480688 -0.054615
H -1.411672 2.546111 -0.965309
H 0.623678 2.937184 -0.382848
H -0.676961 0.103831 0.722745
H 0.926566 -1.245052 -0.128067
H 3.412621 0.602296 1.884696
H 2.630001 -2.246865 1.066243
H 3.681878 -1.705664 2.424596
H 1.530910 -2.190318 3.043191
H 4.954690 0.687909 0.258464
H 5.562432 -1.313557 0.836024
H 3.487195 1.202267 -1.504848
H 5.384541 0.405808 -2.320401
H 2.644364 -1.751043 -1.484493
H 1.855887 0.472839 -3.092909
