55

C 0.134271 4.872551 -1.233326
O 0.041727 3.465810 -1.045581
C 0.811390 2.777294 -0.101543
O 1.655791 3.400966 0.598595
C 0.675568 1.307654 0.036062
C -0.440224 0.669910 -0.390931
N -1.731860 1.278372 -0.271455
C -2.601069 0.228959 0.124851
C -3.930636 0.372602 0.530973
O -4.513865 1.647927 0.534350
C -5.855906 1.912775 0.927996
C -4.630060 -0.792431 0.921480
C -3.994196 -2.048288 0.894638
C -2.656325 -2.159262 0.488352
C -1.968140 -0.996522 0.132677
C -0.577006 -0.850620 -0.417185
C -0.508342 -1.410211 -1.849377
C 0.625595 -2.431999 -1.810852
N 1.518155 -2.037792 -0.695363
C 2.275829 -3.226091 -0.230873
C 2.453332 -0.964005 -1.206619
C 2.911668 0.114407 -0.185277
C 4.182824 -0.246876 0.570434
C 4.921538 0.793035 1.361960
O 4.644752 -1.375970 0.523192
C 1.769428 0.525059 0.762224
C 1.185589 -0.714824 1.427240
C 0.547891 -1.586242 0.342905
H 1.165282 5.148076 -1.540775
H -0.131015 5.399542 -0.292407
H -0.573286 5.180978 -2.029970
H -1.931792 2.289082 -0.104031
H -6.009830 1.611573 1.985726
H -6.562115 1.365788 0.268250
H -6.052874 3.000433 0.835654
H -5.661956 -0.740746 1.240642
H -4.543334 -2.935549 1.181921
H -2.175757 -3.127578 0.442517
H -1.452080 -1.904245 -2.173117
H -0.276983 -0.613176 -2.590132
H 0.171423 -3.435606 -1.633179
H 1.159258 -2.483055 -2.788076
H 2.852755 -3.002446 0.686600
H 1.596619 -4.069834 0.025280
H 2.974470 -3.588363 -1.017030
H 1.973622 -0.385410 -2.028796
H 3.343412 -1.413580 -1.701961
H 3.186026 1.015561 -0.780352
H 4.910340 0.517822 2.437228
H 5.973315 0.849962 1.011219
H 4.458863 1.795005 1.241076
H 2.171202 1.163379 1.578405
H 1.969952 -1.276288 1.977618
H 0.412473 -0.417040 2.170380
H 0.104287 -2.470473 0.857763
