56

C 6.625324 -0.913879 1.292164
C 6.249755 -2.065437 0.720269
C 5.231095 -2.131095 -0.409458
C 5.161605 -3.583002 -0.916184
O 5.663126 -1.324850 -1.482612
C 3.836499 -1.675417 0.113496
C 2.752706 -1.623467 -0.978678
C 1.502595 -0.959777 -0.456442
C 1.297806 0.377253 -0.447789
C 2.281643 1.339386 -1.067770
C 0.032417 0.938761 0.151048
O -0.750126 1.511973 -0.876184
C -2.006074 1.916269 -0.363902
O -2.838129 0.780455 -0.218229
C -3.974079 1.089459 0.578486
C -4.945837 -0.099132 0.509501
O -4.272239 -1.324164 0.799415
C -3.874469 -1.703362 2.086236
C -3.073632 -2.947046 2.267875
O -4.149559 -0.985228 3.085698
C -4.683015 2.414857 0.142705
O -4.393135 3.421245 1.081383
C -4.218464 2.858696 -1.262582
O -4.745994 1.965107 -2.212266
C -2.665805 2.888748 -1.367859
O -2.167835 4.193473 -1.196835
H 6.213084 0.038781 0.977292
H 7.357772 -0.922153 2.092534
H 6.705690 -2.982540 1.086127
H 6.176007 -3.942736 -1.196128
H 4.525259 -3.655226 -1.823671
H 4.750857 -4.257412 -0.133360
H 5.535811 -0.372588 -1.231393
H 3.931270 -0.668715 0.574708
H 3.499883 -2.363396 0.921641
H 3.119369 -1.107590 -1.889147
H 2.485942 -2.659020 -1.274255
H 0.746466 -1.615445 -0.035830
H 3.271188 1.257635 -0.574848
H 2.386827 1.127955 -2.151440
H 1.931262 2.386747 -0.958422
H -0.531269 0.142566 0.692217
H 0.321235 1.715987 0.892052
H -1.873722 2.445804 0.615024
H -3.649134 1.179855 1.639940
H -5.792930 0.045397 1.215630
H -5.364411 -0.170695 -0.517379
H -3.280141 -3.654997 1.437340
H -3.337515 -3.435283 3.229727
H -1.993212 -2.693397 2.269332
H -5.789817 2.267931 0.117322
H -5.050108 4.151917 0.936994
H -4.628743 3.876857 -1.464290
H -4.704902 2.421956 -3.093417
H -2.385224 2.569085 -2.396014
H -2.452972 4.512897 -0.301801
