75

C 0.702682 -2.171279 -2.172742
C -0.656874 -1.588901 -1.789385
C -1.817368 -2.604070 -2.084215
C -3.163023 -2.140397 -1.404813
O -3.933830 -3.256505 -1.044808
C -2.873987 -1.278855 -0.130637
C -1.696892 -1.934472 0.600539
C -0.782306 -1.067943 -0.290648
O 0.361523 -0.457147 0.296254
C 1.238442 -1.388212 0.911634
O 2.470709 -1.355648 0.209272
C 3.376328 -2.316714 0.725103
C 4.600498 -2.422628 -0.201511
O 5.261269 -1.164368 -0.351703
C 4.850016 -0.169112 -1.248386
O 3.966023 -0.420612 -2.112778
C 5.457593 1.177655 -1.180923
C 6.454700 1.461832 -0.229181
C 7.024961 2.736630 -0.161628
C 6.606366 3.739471 -1.038487
C 5.612422 3.470754 -1.982321
C 5.039857 2.197928 -2.056460
C 3.777395 -1.957879 2.174589
O 4.453182 -0.724873 2.199003
C 2.504174 -1.875429 3.039322
O 2.810903 -1.395261 4.322367
C 1.470571 -0.948815 2.373512
O 0.261444 -0.999662 3.084135
C -1.943941 -0.073382 -0.464590
C -1.975709 1.092590 0.553380
O -3.144171 1.888299 0.360938
C -4.346727 1.691279 1.047738
O -4.386730 0.928138 2.051401
C -5.570666 2.390368 0.599546
C -5.529208 3.248994 -0.513447
C -6.689785 3.888012 -0.957436
C -7.905562 3.677165 -0.296519
O -9.068891 4.302322 -0.734751
C -7.954134 2.830103 0.813394
C -6.795597 2.191210 1.262458
C -1.798817 0.372061 -1.882303
O -2.391487 1.354456 -2.401732
O -0.939342 -0.444451 -2.578652
H 0.675919 -2.543074 -3.218614
H 0.968077 -3.015703 -1.503855
H 1.480003 -1.384779 -2.114187
H -1.533344 -3.613039 -1.711728
H -1.970683 -2.703284 -3.180905
H -3.744696 -1.511855 -2.119259
H -4.260608 -3.659102 -1.891766
H -3.757582 -1.060928 0.502240
H -1.679469 -1.634660 1.668917
H -1.585699 -3.033546 0.487218
H 0.829565 -2.429160 0.912096
H 2.905969 -3.329589 0.723977
H 4.293873 -2.817433 -1.194277
H 5.319861 -3.149835 0.231127
H 6.793210 0.702367 0.463270
H 7.793561 2.947841 0.570863
H 7.050281 4.725726 -0.986376
H 5.285619 4.250261 -2.658693
H 4.269898 2.013596 -2.796181
H 4.435626 -2.766187 2.572513
H 5.021771 -0.721965 3.012527
H 2.058023 -2.895793 3.122333
H 3.265658 -2.135813 4.802346
H 1.860959 0.097395 2.362364
H 0.353217 -0.383188 3.856900
H -1.091260 1.741713 0.381959
H -1.909023 0.731163 1.602440
H -4.602463 3.423729 -1.045126
H -6.643783 4.543015 -1.818272
H -9.065478 4.928322 -1.531633
H -8.891848 2.665052 1.327530
H -6.861168 1.536099 2.122431
