55

C -5.544895 -1.714851 0.804177
C -5.708210 -0.696558 -0.332497
C -6.504458 0.528454 0.134869
C -4.360908 -0.282268 -0.900345
C -4.079866 -0.484461 -2.263193
C -2.843304 -0.113829 -2.797442
C -1.853702 0.462409 -1.982010
C -0.535662 0.881972 -2.592123
O -0.275757 2.230510 -2.293100
C -2.120297 0.644445 -0.604309
O -1.158882 1.183306 0.259755
C -0.027201 0.439386 0.711660
O 1.063741 1.336401 0.821906
C 2.276484 0.679926 1.163714
C 2.857999 -0.122061 -0.027930
O 4.257647 -0.356329 0.137229
C 5.236560 0.626428 -0.067237
O 4.914445 1.786650 -0.445784
C 6.676803 0.297766 0.179355
C 7.489247 0.527242 -1.062247
O 7.519232 -0.350093 -1.973987
O 8.173537 1.732285 -1.232315
C 2.172258 -0.089498 2.513499
O 3.317443 -0.876134 2.723504
C 0.888427 -0.943159 2.647614
O 1.054973 -2.230212 2.093934
C -0.339643 -0.189883 2.088092
O -1.468630 -1.030083 2.049316
C -3.375636 0.305373 -0.084531
H -5.059667 -1.255143 1.689000
H -4.924084 -2.573322 0.459700
H -6.538010 -2.102676 1.113554
H -6.308851 -1.194822 -1.128349
H -7.530393 0.221156 0.443238
H -6.007463 1.023822 0.999776
H -6.597111 1.262311 -0.696959
H -4.825096 -0.924582 -2.918066
H -2.663630 -0.273101 -3.854140
H -0.559171 0.772048 -3.701279
H 0.272823 0.214579 -2.220680
H 0.691776 2.301048 -2.079528
H 0.195713 -0.356851 -0.029671
H 3.004475 1.499954 1.353251
H 2.359327 -1.103896 -0.129776
H 2.684288 0.432125 -0.978818
H 6.769599 -0.765959 0.497223
H 7.066803 0.938874 1.004098
H 8.705773 1.922339 -2.078289
H 2.125658 0.693931 3.311038
H 3.331100 -1.114636 3.687272
H 0.706778 -1.095375 3.736419
H 0.907324 -2.182536 1.116367
H -0.570029 0.644993 2.788491
H -1.366355 -1.650352 1.281106
H -3.573325 0.482938 0.965945
