57

C 3.872395 1.937190 0.950252
C 2.871371 1.731516 -0.149608
C 2.219447 0.567302 -0.388843
C 2.511886 -0.708580 0.428306
N 1.304880 -1.365874 1.035157
C 1.741285 -2.661708 1.627519
C 0.777578 -0.518873 2.127617
C -0.139652 0.513166 1.504001
C -0.605894 -0.079354 0.138800
C -2.057522 -0.501366 0.277961
C -3.218779 0.284901 0.325315
C -4.450915 -0.337453 0.581494
C -4.509274 -1.721160 0.823092
C -3.333943 -2.485015 0.819619
C -2.124815 -1.841513 0.555771
N -0.853608 -2.450635 0.556136
C 0.149474 -1.483793 0.078723
C 0.540672 -1.942458 -1.375902
O 1.293147 -3.126930 -1.341168
C 1.274816 -0.873489 -2.211710
C 1.218216 0.515255 -1.555667
C -0.254771 0.870343 -1.105007
C -1.265033 0.680156 -2.289563
O -0.778805 1.242799 -3.482348
C -0.348274 2.363666 -0.770134
O 0.318242 3.204372 -1.436026
O -1.259415 2.819067 0.187911
C -1.407052 4.194006 0.518482
H 3.399136 1.752330 1.937470
H 4.237345 2.985419 0.929813
H 4.742792 1.262753 0.808287
H 2.676569 2.590942 -0.782115
H 3.043049 -1.421318 -0.237839
H 3.260615 -0.515251 1.224652
H 0.922640 -3.176997 2.173740
H 2.141730 -3.356244 0.864047
H 2.553463 -2.497496 2.371288
H 0.165519 -1.117619 2.842954
H 1.584694 -0.033293 2.722975
H 0.449890 1.445740 1.408615
H -0.985191 0.743422 2.190976
H -3.188115 1.350663 0.169664
H -5.357988 0.252404 0.605204
H -5.460822 -2.194819 1.026512
H -3.364141 -3.546764 1.026982
H -0.716057 -3.485597 0.600690
H -0.412530 -2.179533 -1.900751
H 1.274286 -3.512548 -2.256390
H 0.824524 -0.832723 -3.227078
H 2.334776 -1.160853 -2.389724
H 1.554719 1.226502 -2.343913
H -1.481209 -0.385309 -2.480088
H -2.253989 1.129574 -2.043331
H -1.078776 2.188602 -3.504202
H -2.180643 4.297251 1.306628
H -0.445810 4.597160 0.901763
H -1.726133 4.768066 -0.377006
