49

C -3.836882 1.783302 0.873781
C -2.870887 0.638393 1.206633
C -1.614700 0.503222 0.266885
C -2.046254 0.331405 -1.214510
C -2.912927 -0.927240 -1.423997
C -2.439907 -2.128488 -0.579059
N -1.032625 -1.962706 -0.190665
C -0.477903 -3.188721 0.436244
C 1.066246 -3.101909 0.565925
C 1.537878 -1.679050 0.718142
C 0.681549 -0.592503 0.695813
N 1.327809 0.543549 0.356870
C 2.621057 0.180041 0.179727
C 3.679360 0.955970 -0.308843
C 4.917788 0.327205 -0.529202
C 5.070840 -1.055738 -0.297854
C 3.986526 -1.824869 0.155831
C 2.780499 -1.170696 0.404637
C 0.660959 1.752087 -0.124386
O 1.378881 2.889435 0.326497
C 1.329142 3.924807 -0.631787
C -0.769338 1.811164 0.442157
C -0.801658 -0.786422 0.692811
H -3.336326 2.769898 0.939853
H -4.666708 1.781201 1.611756
H -4.285708 1.652964 -0.131275
H -3.464057 -0.294864 1.222164
H -2.528384 0.784650 2.254987
H -2.586414 1.225794 -1.589775
H -1.137795 0.229279 -1.847524
H -2.882620 -1.197125 -2.502355
H -3.972177 -0.701025 -1.175631
H -2.557316 -3.046736 -1.196000
H -3.076860 -2.266698 0.320556
H -0.721838 -4.082708 -0.179297
H -0.929524 -3.348375 1.441517
H 1.412615 -3.704850 1.431754
H 1.522004 -3.524482 -0.355766
H 3.564814 2.007047 -0.527016
H 5.754968 0.905403 -0.898114
H 6.023714 -1.531207 -0.490550
H 4.085280 -2.893271 0.298693
H 0.610847 1.684412 -1.237733
H 1.846852 4.814217 -0.218142
H 1.860041 3.629309 -1.563430
H 0.282193 4.220368 -0.860708
H -0.684816 2.047967 1.526655
H -1.293520 2.663633 -0.038097
H -1.074718 -1.047037 1.741830
