48

C 2.529635 -0.345923 -1.847843
C 2.608084 0.850756 -0.873944
O 1.977044 1.970834 -1.448100
C 4.090717 1.204806 -0.562350
C 4.351018 0.868412 0.923003
O 4.345769 2.039398 1.700193
C 3.181002 -0.025493 1.302743
C 2.817350 -0.129835 2.756148
C 1.557635 -0.458421 3.077645
O 0.559928 -0.570280 2.084741
C 0.815981 -0.400835 0.677326
O -0.317756 0.181728 0.058403
C -1.234533 -0.793255 -0.416348
O -2.031806 -0.201414 -1.436746
C -3.100477 0.546218 -0.889042
C -3.639697 1.516580 -1.952690
O -4.734125 2.242302 -1.459960
C -4.180908 -0.424564 -0.330956
O -5.140344 -0.787114 -1.296423
C -3.531392 -1.682438 0.315493
O -3.590028 -2.808581 -0.529490
C -2.078001 -1.393371 0.754859
O -1.469458 -2.568473 1.226761
C 2.017107 0.549192 0.519447
H 3.032262 -1.241048 -1.424615
H 3.025622 -0.085181 -2.807058
H 1.472833 -0.601293 -2.072437
H 1.020063 1.742666 -1.580425
H 4.293558 2.281678 -0.756287
H 4.793570 0.623091 -1.199365
H 5.312602 0.319038 1.053275
H 5.227561 2.473519 1.561051
H 3.405578 -1.056964 0.944405
H 3.572546 -0.026780 3.525096
H 1.290744 -0.609299 4.115108
H 1.093325 -1.391959 0.249715
H -0.700916 -1.628000 -0.926397
H -2.731251 1.186708 -0.051558
H -2.828923 2.214105 -2.264339
H -3.954612 0.961542 -2.860915
H -4.367458 2.918224 -0.831977
H -4.721167 0.125898 0.470967
H -4.658524 -1.146100 -2.086041
H -4.116807 -1.934696 1.227059
H -3.013648 -2.634940 -1.317697
H -2.118097 -0.641283 1.578783
H -1.859670 -2.754763 2.120535
H 1.728064 1.525609 0.980245
