50

C 2.790329 -3.657940 0.595269
O 2.666902 -2.428968 -0.109831
C 2.623125 -1.188610 0.537343
O 2.781063 -1.125184 1.787833
C 2.526823 0.073197 -0.289078
C 3.542784 1.108959 0.251224
C 1.079589 0.553468 -0.835186
C 1.332419 1.820375 -1.620573
C 1.307845 2.991908 -0.930153
C 0.983961 3.019966 0.583364
N 0.070896 1.924727 1.019660
C 0.387281 1.116446 2.201575
C -0.288363 -0.268872 1.987023
C -0.871588 -0.253685 0.547989
C -2.404926 -0.051588 0.590637
C -2.959702 1.014086 1.340635
C -4.338505 1.221395 1.392111
C -5.197267 0.375751 0.697776
C -4.677883 -0.677583 -0.051062
C -3.291929 -0.897055 -0.114004
N -2.807724 -1.982757 -0.901902
C -1.419850 -2.245046 -1.060036
O -1.056781 -3.240356 -1.743256
C -0.373884 -1.364804 -0.443305
C 0.440497 -0.637753 -1.561478
C -0.192226 0.962163 -0.020775
H 3.744616 -3.676284 1.162925
H 2.786786 -4.496290 -0.130961
H 1.935499 -3.782829 1.293348
H 3.037967 -0.224129 -1.234296
H 3.645662 1.995096 -0.404035
H 3.331286 1.413607 1.289559
H 4.554069 0.646216 0.277453
H 1.544752 1.797299 -2.684741
H 1.508116 3.923362 -1.449661
H 1.909038 3.050846 1.186025
H 0.473041 3.982885 0.790794
H -0.028696 1.610838 3.104886
H 1.474249 1.000418 2.345981
H 0.421396 -1.097950 2.146358
H -1.085224 -0.418645 2.748427
H -2.330816 1.691492 1.898443
H -4.741141 2.040636 1.973872
H -6.266843 0.536851 0.738485
H -5.358346 -1.325828 -0.589026
H -3.488245 -2.613248 -1.384265
H 0.274588 -2.062384 0.111395
H 1.176539 -1.320620 -2.038251
H -0.243993 -0.273374 -2.363008
H -0.927185 1.439794 -0.722884
