52

C -3.748040 4.235927 0.425726
O -3.118914 3.100517 1.006829
C -3.418077 1.792297 0.615875
O -4.268395 1.573529 -0.290734
C -2.696388 0.641333 1.272250
C -3.681548 -0.390564 1.918787
O -4.894612 0.211056 2.294990
C -3.967788 -1.576723 0.978045
C -2.681250 -2.345591 0.587709
C -1.406025 -1.475490 0.689050
C -0.206757 -2.068398 -0.095251
N 0.043662 -1.305993 -1.336590
C 0.987954 -2.002453 -2.246732
C 2.425849 -2.067305 -1.689602
C 2.806413 -0.735536 -1.135176
C 1.898270 0.247895 -0.799681
N 2.526401 1.345340 -0.315396
C 3.836333 1.029932 -0.308931
C 4.895751 1.829537 0.117417
C 6.195996 1.297181 0.035133
C 6.406980 -0.006997 -0.467275
C 5.320011 -0.792651 -0.892804
C 4.045114 -0.238294 -0.797990
C 0.422827 0.117210 -1.077384
C -0.424318 0.751638 0.058969
C -1.731699 -0.030228 0.251762
H -3.540782 4.268878 -0.664847
H -4.844090 4.193034 0.599094
H -3.345653 5.156222 0.896189
H -2.089630 1.061798 2.105637
H -3.201003 -0.814180 2.832753
H -4.692350 0.797608 3.070376
H -4.461375 -1.195304 0.057281
H -4.678688 -2.277827 1.467244
H -2.563305 -3.228494 1.253616
H -2.801769 -2.724576 -0.451359
H -1.104177 -1.452435 1.761991
H -0.396055 -3.139789 -0.328789
H 0.696816 -2.036859 0.554142
H 0.626798 -3.032096 -2.459366
H 1.004352 -1.468555 -3.222328
H 2.490229 -2.829716 -0.885221
H 3.127537 -2.352126 -2.502179
H 2.091213 2.246389 -0.016341
H 4.725049 2.827030 0.501033
H 7.040475 1.891116 0.359822
H 7.411863 -0.404138 -0.526012
H 5.472010 -1.791435 -1.281025
H 0.214022 0.690574 -2.007046
H 0.137307 0.745467 1.020612
H -0.645728 1.811509 -0.194012
H -2.240818 -0.079264 -0.740260
