46

C 0.018088 2.426662 1.916812
C -1.148157 1.683596 1.327319
C -2.410712 2.292132 1.345426
C -3.536070 1.607977 0.881333
C -3.422688 0.297480 0.395337
C -4.663753 -0.462373 -0.030735
C -4.546563 -0.977610 -1.472009
C -4.952775 -1.610295 0.943202
C -2.153310 -0.306399 0.359069
C -1.013471 0.387533 0.779384
O 0.229032 -0.248716 0.664422
C 1.309793 0.270907 -0.114485
O 2.495551 0.172515 0.665380
C 3.639190 0.414015 -0.132078
C 4.827232 0.763030 0.779580
O 5.978403 1.007133 0.015991
C 3.900378 -0.814090 -1.056289
O 4.773918 -1.750099 -0.467888
C 2.569961 -1.507722 -1.454555
O 2.694283 -2.106311 -2.719278
C 1.418795 -0.484101 -1.478789
O 0.202079 -1.083190 -1.848879
H 0.824546 1.734091 2.222554
H 0.413296 3.153539 1.178832
H -0.299000 2.976761 2.825277
H -2.529365 3.293082 1.741260
H -4.500706 2.095895 0.925053
H -5.541657 0.221305 -0.002998
H -5.510776 -1.424928 -1.791386
H -3.756975 -1.752721 -1.562550
H -4.309190 -0.137876 -2.159272
H -5.908309 -2.107267 0.675322
H -5.043768 -1.215084 1.977782
H -4.139936 -2.367696 0.918471
H -2.043219 -1.319529 -0.004554
H 1.120239 1.346004 -0.336185
H 3.475217 1.314010 -0.774680
H 4.574347 1.660768 1.394949
H 5.032604 -0.067816 1.491936
H 5.897570 1.936856 -0.333251
H 4.391642 -0.432009 -1.979967
H 4.347685 -2.074194 0.370172
H 2.311345 -2.287314 -0.697155
H 3.259034 -2.909910 -2.601674
H 1.662991 0.266581 -2.263489
H 0.063181 -1.874620 -1.265116
