136

C -8.060757 6.442744 1.770554
C -8.350704 5.373192 0.744527
C -8.736633 5.685256 -0.513550
C -8.879208 7.093947 -1.021432
O -7.615113 7.686428 -1.126008
C -8.159612 3.917650 1.119646
C -6.824283 3.410310 0.571327
C -6.549332 1.981847 0.974248
C -5.355522 1.387782 0.777269
C -4.198782 2.147068 0.180969
C -5.130542 -0.010777 1.215211
O -6.098704 -0.729624 1.584892
O -3.829787 -0.534819 1.198298
C -3.537336 -1.931374 1.250855
C -2.075932 -2.119604 1.696249
O -1.193654 -1.441190 0.807378
C -0.412355 -0.448992 1.459921
C 0.806168 -1.102435 2.155375
O 1.460323 -0.143816 2.951182
C 1.816232 -1.665613 1.104802
C 1.876383 -3.193028 1.162502
O 1.484338 -1.290568 -0.222401
C 1.343479 0.113799 -0.328494
O 1.234699 0.442518 -1.706053
C 2.411731 1.045253 -2.200149
C 2.387333 2.528336 -1.911332
C 3.423975 3.256796 -1.438635
C 3.226606 4.740164 -1.254756
C 4.766926 2.650433 -1.086795
C 5.610011 2.413660 -2.346222
C 6.943725 1.810055 -1.968107
C 7.451455 0.663973 -2.479162
C 6.728908 -0.124128 -3.547035
C 8.793359 0.190396 -1.979989
O 8.732204 0.046077 -0.573000
C 9.933574 0.477547 0.035824
O 10.984853 -0.406431 -0.320510
C 12.223667 0.064798 0.181914
C 13.337443 -0.824269 -0.366959
C 12.213185 0.040698 1.733351
O 13.434296 0.496847 2.264555
C 11.043681 0.884494 2.269538
O 10.925633 0.685683 3.654795
C 9.736472 0.473237 1.565395
O 8.678758 1.323407 1.936480
C 0.066283 0.589506 0.421007
O -0.980170 0.859454 -0.477049
O -1.693068 -3.484293 1.796086
C -2.200498 -4.352321 0.784995
C -3.213828 -5.315920 1.410724
C -2.772366 -3.660104 -0.480027
O -1.732177 -3.068636 -1.217813
C -3.826367 -2.581169 -0.125117
O -5.130917 -3.143820 -0.073056
C -5.719059 -3.318716 -1.356291
O -5.600835 -4.673529 -1.766336
C -6.543219 -5.580521 -1.191963
C -7.441474 -6.127631 -2.308724
C -7.361616 -5.029675 0.008405
O -8.331554 -5.969005 0.403093
C -8.023851 -3.671732 -0.315650
O -8.190732 -2.936446 0.872702
C -7.186410 -2.856134 -1.332887
O -7.241423 -1.479689 -1.052355
H -8.975530 7.039192 1.963598
H -7.250783 7.109757 1.407562
H -7.724606 6.000577 2.732289
H -8.952199 4.884997 -1.215709
H -9.527830 7.684881 -0.334557
H -9.360099 7.070167 -2.023371
H -7.774012 8.617303 -1.436784
H -8.169816 3.802380 2.225090
H -9.000175 3.308357 0.719218
H -6.836216 3.467495 -0.536654
H -6.012619 4.063244 0.958082
H -7.349725 1.428259 1.452767
H -4.527707 2.778031 -0.673902
H -3.728029 2.788926 0.957089
H -3.434339 1.454441 -0.224854
H -4.171393 -2.402958 2.036391
H -2.029496 -1.721033 2.737382
H -1.020561 0.114095 2.206051
H 0.445846 -1.923399 2.817235
H 0.922175 -0.034901 3.778007
H 2.846952 -1.304341 1.337112
H 2.637047 -3.565820 0.444334
H 0.892309 -3.626574 0.891032
H 2.160393 -3.533391 2.179398
H 2.214983 0.622617 0.159011
H 3.321249 0.518998 -1.842743
H 2.411913 0.925553 -3.304307
H 1.460630 3.044019 -2.154715
H 2.430545 4.923543 -0.500398
H 2.924466 5.198324 -2.221376
H 4.159910 5.239385 -0.917038
H 5.322640 3.336365 -0.410144
H 4.636537 1.708922 -0.511785
H 5.045986 1.779423 -3.056948
H 5.804085 3.389096 -2.844044
H 7.533500 2.357146 -1.238503
H 5.751145 -0.485385 -3.161765
H 7.316442 -1.006628 -3.875643
H 6.561736 0.521629 -4.437926
H 9.559723 0.921271 -2.336483
H 9.051577 -0.796248 -2.422569
H 10.162030 1.525198 -0.284996
H 12.421665 1.101767 -0.180543
H 13.212855 -1.870362 -0.015451
H 13.305611 -0.817393 -1.477756
H 14.332155 -0.447228 -0.047040
H 12.063262 -1.008964 2.065334
H 13.585028 1.416183 1.919394
H 11.255925 1.961329 2.057528
H 10.429652 1.465015 4.019176
H 9.474560 -0.560999 1.881717
H 8.897439 2.238382 1.618614
H 0.322865 1.525840 0.976151
H -0.838507 1.782347 -0.818535
H -1.351964 -4.984604 0.450507
H -2.738697 -5.866739 2.249717
H -4.095381 -4.771613 1.807583
H -3.559094 -6.057269 0.658594
H -3.239997 -4.436103 -1.123146
H -1.223450 -3.804111 -1.648366
H -3.769402 -1.763903 -0.885042
H -5.223893 -2.704501 -2.145136
H -5.960658 -6.447968 -0.810177
H -8.074891 -6.959048 -1.936361
H -6.813741 -6.528165 -3.133034
H -8.091701 -5.335146 -2.725477
H -6.641719 -4.893763 0.847557
H -8.552145 -5.783610 1.354910
H -9.023455 -3.852222 -0.777779
H -8.967191 -3.331335 1.350995
H -7.600672 -3.029133 -2.357747
H -8.141017 -1.166944 -1.330694
