74

C 0.765505 -4.044042 -1.577457
C 1.836728 -2.985074 -1.285323
C 3.046530 -3.105680 -2.282821
C 3.966719 -1.905352 -1.877712
O 5.071205 -1.796163 -2.738249
O 4.382591 -2.161474 -0.550816
C 3.188992 -2.022843 0.194841
O 2.384939 -3.175352 0.003667
C 2.428947 -0.876251 -0.451801
C 2.163463 0.347574 0.442609
O 3.414902 0.878803 0.877115
C 3.759104 1.127564 2.206663
O 2.966919 0.815995 3.140408
C 5.088044 1.700598 2.516006
C 5.922600 2.156064 1.473486
C 7.187206 2.672963 1.757985
C 7.631648 2.752030 3.080979
C 6.809871 2.313713 4.124275
C 5.547966 1.784416 3.844933
C 3.123163 -0.584548 -1.782006
C 1.756333 -0.682290 -2.491779
C 1.288622 -1.502988 -1.258925
O -0.000406 -1.392828 -0.652755
C -0.801503 -0.289295 -1.051602
O -1.736689 0.022843 -0.025680
C -2.582959 -1.083187 0.272687
C -3.430725 -0.734710 1.504692
O -4.209703 0.430260 1.261465
C -5.174836 0.911685 2.146790
O -5.312195 0.379145 3.285659
C -6.038762 2.042845 1.740990
C -7.054173 2.512840 2.590976
C -7.882456 3.562464 2.185609
C -7.707595 4.151631 0.932390
C -6.699426 3.696683 0.081255
C -5.868403 2.645678 0.480949
C -3.452720 -1.479572 -0.950137
O -4.364530 -0.451307 -1.247620
C -2.546549 -1.734831 -2.173581
O -3.299675 -2.020553 -3.332464
C -1.550894 -0.566946 -2.385371
O -2.236290 0.571870 -2.861183
H -0.108822 -3.919459 -0.900833
H 1.188866 -5.055209 -1.401798
H 0.420435 -3.986756 -2.629458
H 3.585864 -4.069406 -2.121598
H 2.749003 -3.073247 -3.349832
H 5.562153 -0.975756 -2.473032
H 3.402831 -1.865303 1.271491
H 1.519549 0.043305 1.294113
H 1.645142 1.150107 -0.116013
H 5.607488 2.105909 0.436662
H 7.824791 3.005214 0.954951
H 8.613302 3.158567 3.301067
H 7.158956 2.373183 5.146741
H 4.931493 1.442186 4.666254
H 3.678035 0.378147 -1.837753
H 1.738007 -1.203333 -3.468768
H 1.331243 0.334910 -2.598396
H -0.192803 0.626431 -1.163334
H -1.979807 -1.973756 0.570034
H -4.091265 -1.586558 1.763950
H -2.758772 -0.548011 2.367254
H -7.212110 2.066814 3.565140
H -8.663667 3.918139 2.842656
H -8.356404 4.959751 0.619291
H -6.563046 4.150729 -0.891753
H -5.100448 2.300082 -0.198879
H -3.990931 -2.430247 -0.703026
H -5.263606 -0.869240 -1.325906
H -1.948963 -2.643660 -1.959021
H -3.863126 -1.228735 -3.552073
H -0.826476 -0.870718 -3.167785
H -1.818415 1.403542 -2.500384
