55

C -5.819237 0.700825 2.125289
C -5.550044 0.366560 0.649476
C -6.782952 0.736455 -0.199824
O -6.627439 0.304335 -1.525613
C -4.289126 1.092234 0.121408
C -2.991854 0.599295 0.788531
C -1.727088 1.177172 0.110446
C -0.992248 0.212889 -0.855749
C -1.884451 -0.209451 -2.033024
C -0.398390 -1.010493 -0.109739
C 0.715002 -1.724095 -0.894582
O 1.766510 -0.831031 -1.219744
C 2.784535 -0.831255 -0.231960
O 3.426164 0.430135 -0.264021
C 4.229924 0.628480 0.893713
C 4.988643 1.956857 0.716203
O 5.605794 2.352564 1.912581
C 5.157725 -0.604507 1.188249
O 6.428799 -0.251958 1.681100
C 5.248806 -1.569504 -0.020013
O 6.042317 -1.034915 -1.054386
C 3.826813 -1.953999 -0.515999
O 3.848052 -2.336399 -1.871077
H -6.768166 0.230538 2.461046
H -5.011261 0.301184 2.771196
H -5.894568 1.799269 2.272652
H -5.396232 -0.732745 0.568640
H -7.703477 0.282039 0.233933
H -6.923944 1.839051 -0.198969
H -6.752823 -0.680557 -1.519998
H -4.212365 0.923474 -0.972290
H -4.391481 2.188743 0.280088
H -2.991881 0.934478 1.847591
H -2.972613 -0.509237 0.799455
H -1.975334 2.116683 -0.431678
H -1.009008 1.478622 0.905108
H -0.150180 0.801800 -1.282013
H -1.284973 -0.731765 -2.806745
H -2.334233 0.685658 -2.512866
H -2.695576 -0.888736 -1.695064
H -1.195779 -1.752507 0.108153
H 0.017366 -0.685256 0.867933
H 0.297290 -2.126181 -1.840033
H 1.064086 -2.615666 -0.323297
H 2.346422 -0.990030 0.786798
H 3.552756 0.772764 1.767698
H 5.759013 1.858118 -0.076663
H 4.280119 2.749254 0.381603
H 4.886870 2.697152 2.504583
H 4.662760 -1.182397 2.000729
H 6.970902 0.095310 0.927304
H 5.752682 -2.499269 0.324677
H 5.615518 -0.199081 -1.372733
H 3.503628 -2.845818 0.065007
H 3.948226 -1.515087 -2.418945
