30

C 3.854094 -1.093310 -0.706041
C 3.277508 0.207025 -0.151962
O 3.265730 1.178896 -1.164620
C 1.884243 -0.022839 0.370430
C 0.780562 -0.131043 -0.361767
C -0.403515 -0.442979 0.522374
C -1.128268 -1.752247 0.129385
C -2.569446 -1.368745 -0.265810
C -2.648399 0.086976 0.006628
C -3.767699 0.906347 -0.142936
C -3.634847 2.267480 0.168494
N -2.436884 2.759311 0.603281
C -1.342988 1.958417 0.747421
C -1.454942 0.600362 0.440292
O 0.153896 -0.518856 1.833053
C 1.511716 -0.277404 1.745380
O 2.294265 -0.287838 2.731150
H 4.890077 -0.920809 -1.067351
H 3.237771 -1.462951 -1.553797
H 3.882510 -1.869989 0.088207
H 3.932967 0.547398 0.682581
H 3.112955 2.053251 -0.719008
H 0.744730 -0.025661 -1.438935
H -1.152824 -2.453395 0.992426
H -0.623026 -2.266766 -0.717917
H -3.312629 -1.918635 0.350910
H -2.747780 -1.561912 -1.345564
H -4.711708 0.504846 -0.488076
H -4.482527 2.931423 0.064972
H -0.405540 2.373646 1.092930
