52

C 0.172705 -2.604766 3.654471
O -0.131589 -1.518483 2.788348
C 0.855835 -0.755211 2.156465
O 2.072866 -0.984204 2.398880
C 0.447213 0.418031 1.287868
C 1.635566 1.183434 0.646456
C 1.089019 2.512056 0.106210
C 0.189882 2.202649 -1.095877
N 0.981823 1.590083 -2.156166
C 1.927124 0.741738 -1.931279
C 2.352861 0.436025 -0.513804
O 2.551928 -0.942456 -0.295193
C 3.706240 -0.131961 -0.237783
C 4.651699 -0.421235 -1.403438
C -1.030903 1.298536 -0.717800
N -1.501279 0.634424 -1.938374
C -1.113607 -0.721798 -1.877363
C -1.199309 -1.640835 -2.922051
C -0.773293 -2.955427 -2.688969
C -0.288768 -3.325869 -1.422224
C -0.218797 -2.381978 -0.384938
C -0.603761 -1.057789 -0.645119
C -0.743073 0.130373 0.291269
C -2.078530 0.046272 1.050314
C -2.906031 1.227314 0.546105
O -3.465281 1.918474 1.646946
C -4.485594 2.786388 1.204256
O -2.064152 2.090862 -0.185040
H -0.772983 -3.055238 4.019213
H 0.759359 -2.243509 4.525441
H 0.751626 -3.377753 3.106019
H 0.050476 1.137819 2.040020
H 2.371274 1.435011 1.443143
H 0.519861 3.068329 0.883517
H 1.932186 3.163283 -0.215165
H -0.203637 3.164724 -1.490423
H 2.452153 0.315494 -2.777754
H 4.112465 -0.070800 0.793752
H 4.203373 -1.125288 -2.137082
H 5.581215 -0.882335 -1.009989
H 4.918274 0.528480 -1.912468
H -1.852033 1.120724 -2.793868
H -1.587378 -1.348026 -3.888895
H -0.828714 -3.689548 -3.482157
H 0.019733 -4.347463 -1.241963
H 0.124131 -2.698945 0.584596
H -2.621368 -0.906271 0.854184
H -1.952213 0.114315 2.152460
H -3.699681 0.828760 -0.132486
H -4.865217 3.358268 2.075619
H -5.340110 2.213889 0.780644
H -4.103582 3.521436 0.461470
