70

C 4.621769 3.018495 -1.408785
C 5.173537 1.620721 -1.247191
C 4.389446 0.591988 -0.809383
C 2.959370 0.835953 -0.480958
O 2.201184 1.377107 -1.332041
O 2.450629 0.436703 0.758805
C 1.077565 0.577250 1.113900
O 0.294412 -0.260578 0.279415
C -1.086754 -0.037504 0.512091
C -1.892929 -0.797334 -0.555832
O -3.283349 -0.697837 -0.311639
C -3.850729 0.466877 -0.902684
O -4.701791 1.118218 0.025688
C -5.681295 0.244599 0.583334
C -6.722882 1.116991 1.307323
O -6.093327 1.996535 2.200676
C -6.328970 -0.703948 -0.482439
O -7.697074 -0.921559 -0.243681
C -6.136412 -0.115554 -1.888812
O -6.738142 -0.923954 -2.870741
C -4.633998 0.087151 -2.188159
O -4.497885 1.095104 -3.157810
C -1.470184 -0.477329 1.948058
O -1.278354 -1.862493 2.106401
C -0.601659 0.285500 2.964070
O -0.823527 -0.222088 4.254900
C 0.891968 0.191086 2.593460
O 1.357288 -1.117153 2.815864
C 4.969689 -0.809405 -0.542107
C 5.240118 -0.978744 0.971665
C 3.971894 -1.902487 -0.991695
C 6.284592 -1.031779 -1.335216
C 7.244571 0.137435 -1.161778
C 6.607967 1.416532 -1.692960
H 4.159854 3.361209 -0.458424
H 3.869588 3.042244 -2.224643
H 5.421781 3.741140 -1.674121
H 0.797635 1.649462 0.979663
H -1.326650 1.044494 0.390942
H -1.613692 -0.449508 -1.578097
H -1.614857 -1.871703 -0.521253
H -3.075509 1.220342 -1.179399
H -5.197832 -0.387465 1.362819
H -7.285855 1.718013 0.561327
H -7.452183 0.482619 1.860452
H -5.801493 1.451915 2.977980
H -5.795894 -1.684933 -0.451170
H -7.754011 -1.574132 0.502794
H -6.643337 0.875502 -1.911352
H -6.341893 -1.831951 -2.800595
H -4.214684 -0.866071 -2.590250
H -3.592668 0.993771 -3.553359
H -2.535706 -0.207238 2.146486
H -2.143693 -2.303421 1.901408
H -0.907055 1.358973 2.936510
H -0.441564 0.437525 4.891124
H 1.454763 0.913884 3.230926
H 2.327958 -1.050813 3.010139
H 4.296025 -1.047183 1.547143
H 5.810621 -1.911636 1.169473
H 5.814333 -0.119708 1.376639
H 3.040861 -1.882147 -0.386487
H 4.420843 -2.913095 -0.877262
H 3.694406 -1.761127 -2.058821
H 6.062068 -1.145616 -2.420675
H 6.787632 -1.967881 -1.006365
H 7.524598 0.263499 -0.094830
H 8.180751 -0.065974 -1.723930
H 7.233173 2.274538 -1.362289
H 6.624945 1.395266 -2.804240
