77

C -0.644627 -1.379420 -3.830562
O 0.107883 -1.683262 -2.662955
C 0.598335 -0.692847 -1.803556
O 0.365128 0.522309 -2.056914
C 1.331408 -1.061886 -0.509801
C 1.782389 -2.570657 -0.509207
C 1.039973 -3.368662 0.589770
C -0.489849 -3.244798 0.380445
C -0.936800 -1.749258 0.456715
C -2.132433 -1.493078 1.427076
C -1.831972 -1.742724 2.909956
O -2.572314 -0.144701 1.301016
C -3.787256 -0.000884 0.576427
O -4.525668 1.052957 1.165882
C -5.869719 1.074538 0.691014
C -6.510616 2.389253 1.161067
O -5.864508 3.486846 0.573305
C -5.974801 0.850073 -0.859924
O -7.005962 1.610428 -1.437845
C -4.637417 1.184996 -1.539278
O -4.707202 0.902047 -2.914973
C -3.489773 0.359512 -0.905429
O -2.272949 1.054847 -1.033760
C 0.326440 -0.846050 0.686669
N 0.935922 -1.307127 1.952942
C 1.766606 -0.330057 2.668382
C 3.191393 -0.198380 2.132401
C 3.295597 0.260593 0.705533
C 2.574618 -0.162254 -0.431343
N 3.226968 0.249947 -1.552956
C 4.302944 0.938030 -1.153546
C 5.275344 1.515342 -1.965950
C 6.365475 2.146972 -1.344830
C 6.471335 2.172973 0.072784
O 7.544590 2.790226 0.733053
C 8.600022 3.485309 0.074549
C 5.473232 1.560837 0.855619
C 4.387469 0.962054 0.207604
C 1.394246 -2.720175 1.939492
H -1.559942 -0.812450 -3.556344
H -0.943744 -2.324226 -4.326448
H -0.027894 -0.781952 -4.535443
H 1.628012 -3.071424 -1.487520
H 2.876363 -2.657536 -0.318440
H 1.351215 -4.435533 0.574572
H -0.753786 -3.666292 -0.614764
H -1.013447 -3.870325 1.133460
H -1.366948 -1.506805 -0.534106
H -2.911437 -2.244897 1.161918
H -1.405493 -2.750272 3.082833
H -1.151943 -0.966856 3.317225
H -2.780726 -1.680972 3.485192
H -4.411975 -0.928090 0.607415
H -6.434342 0.256213 1.194182
H -6.418752 2.457070 2.268655
H -7.595117 2.402285 0.911908
H -6.340948 4.294365 0.901783
H -6.176405 -0.233119 -1.047026
H -7.857456 1.146181 -1.221612
H -4.432187 2.272757 -1.385296
H -5.112297 1.693997 -3.354646
H -3.392187 -0.598803 -1.462515
H -2.326253 1.865241 -0.462609
H 0.019232 0.221900 0.752648
H 1.275504 0.666782 2.658310
H 1.824811 -0.635784 3.734870
H 3.774629 -1.130695 2.257882
H 3.688987 0.550892 2.782015
H 2.979730 0.039907 -2.546136
H 5.197468 1.474538 -3.044639
H 7.122436 2.601048 -1.969763
H 9.306947 3.874666 0.834200
H 8.190078 4.340412 -0.503302
H 9.148406 2.795804 -0.601162
H 5.553463 1.564946 1.934603
H 0.891585 -3.272213 2.761648
H 2.480965 -2.824630 2.117252
