69

C -4.461427 -4.884090 -0.405661
C -4.331784 -3.689502 0.557490
C -5.337714 -2.584555 0.182175
C -2.862235 -3.179896 0.647063
C -2.360092 -2.558162 -0.640208
C -1.339789 -1.686854 -0.658203
C -0.737021 -1.090230 0.610511
C -1.166319 -1.830087 1.905876
C -2.643952 -2.220799 1.834768
C 0.789628 -0.978430 0.485169
C 0.693833 0.545009 0.485343
C 1.492262 1.186554 1.602747
O 1.132914 1.076048 2.764661
C 2.753751 1.948092 1.289129
C 4.011898 1.168647 1.728832
C 5.337852 1.870011 1.320783
C 5.994101 1.295979 0.055401
C 4.960734 0.569438 -0.788070
C 4.414755 -0.576960 0.083717
C 5.521041 -1.624108 0.280641
C 6.815820 -0.967356 0.687045
O 7.731695 -1.660489 1.201590
O 7.041470 0.391042 0.419326
O 3.935039 -0.207577 1.375232
C -0.825662 0.458001 0.719060
C -1.643766 1.186176 -0.324759
C -1.500279 2.506116 -0.503798
C -2.309187 3.296595 -1.459115
C -1.778650 4.493060 -1.971051
C -2.535706 5.291559 -2.836210
C -3.839202 4.917553 -3.174364
C -4.380178 3.736211 -2.663844
C -3.623316 2.927117 -1.810125
H -5.466723 -5.343528 -0.298177
H -3.706162 -5.663251 -0.164445
H -4.331263 -4.571028 -1.462060
H -4.618157 -4.068426 1.565389
H -5.074213 -2.111721 -0.789049
H -6.359212 -3.017329 0.095297
H -5.377505 -1.804674 0.972510
H -2.220729 -4.069365 0.838710
H -2.755415 -2.896078 -1.592080
H -0.989321 -1.331155 -1.623227
H -0.558821 -2.753740 2.024407
H -0.984783 -1.209229 2.810081
H -3.254818 -1.299792 1.719476
H -2.936038 -2.720281 2.782330
H 1.198617 -1.366516 -0.472884
H 1.339490 -1.385202 1.363603
H 0.954938 0.953438 -0.517021
H 2.720524 2.921244 1.825039
H 2.787342 2.196502 0.214405
H 3.988670 1.198268 2.840844
H 5.160847 2.956592 1.175957
H 6.058720 1.789209 2.161899
H 6.439433 2.124660 -0.534507
H 5.440546 0.158621 -1.702575
H 4.162496 1.251436 -1.135548
H 3.582201 -1.060512 -0.466044
H 5.214166 -2.358331 1.060492
H 5.689616 -2.175063 -0.669246
H -1.124377 0.805099 1.733146
H -2.389347 0.645974 -0.891491
H -0.739406 3.028068 0.062474
H -0.777409 4.807787 -1.702537
H -2.118267 6.209230 -3.229635
H -4.429854 5.541901 -3.831172
H -5.394393 3.456439 -2.915253
H -4.081905 2.036643 -1.404292
