65

C -3.429169 3.551515 0.278627
C -4.025596 2.129992 0.121065
C -5.275998 2.223523 -0.797879
C -4.157630 1.395832 1.484365
C -5.076964 0.134081 1.335628
C -4.648580 -0.689579 0.104410
C -3.621683 -0.227922 -0.670167
C -3.139790 -0.974888 -1.885942
O -1.752059 -1.232011 -1.799765
C -1.457937 -2.273848 -0.878172
O -0.550195 -1.776058 0.099930
C 0.834627 -1.983680 -0.165290
C 1.626880 -0.841849 0.485776
O 3.013377 -1.138567 0.440130
C 3.789345 0.021758 0.194992
O 5.103422 -0.372616 -0.139924
C 6.000021 0.431599 0.594928
C 5.226801 1.577412 1.241546
O 5.152307 2.645264 0.323864
C 5.882336 2.053595 2.563619
O 7.156671 2.588018 2.320652
C 3.854823 0.946448 1.413822
O 3.784919 0.185399 2.597270
C 1.194303 -2.126200 -1.666824
O 0.871421 -0.946721 -2.364952
C 0.440749 -3.318528 -2.284985
O 1.221192 -4.481560 -2.153026
C -0.961589 -3.523535 -1.647232
O -1.011014 -4.666633 -0.825489
C -2.942461 1.071093 -0.214284
C -2.712645 0.887505 1.299392
H -3.135136 3.950168 -0.715304
H -4.186772 4.233004 0.721372
H -2.532991 3.578970 0.929506
H -6.038526 2.873762 -0.319240
H -4.988390 2.678203 -1.770524
H -5.767184 1.261555 -1.032304
H -4.336374 2.028263 2.381286
H -6.137542 0.445029 1.232631
H -4.990249 -0.499195 2.244536
H -5.169947 -1.609334 -0.141822
H -3.316586 -0.329290 -2.771450
H -3.716895 -1.912697 -2.060642
H -2.359474 -2.606788 -0.308384
H 1.148521 -2.916455 0.353916
H 1.343436 0.119815 -0.005412
H 1.322661 -0.763275 1.552556
H 3.395509 0.585955 -0.684318
H 6.795290 0.817924 -0.078879
H 6.483119 -0.207145 1.365592
H 4.601187 3.360674 0.737474
H 5.233243 2.813128 3.060473
H 5.996608 1.204589 3.272005
H 7.021463 3.503155 1.956884
H 3.033373 1.702624 1.375587
H 3.398093 0.776298 3.294552
H 2.289639 -2.329694 -1.761313
H 1.700386 -0.405777 -2.438941
H 0.311164 -3.104207 -3.373575
H 0.852148 -5.147420 -2.791278
H -1.679762 -3.706968 -2.476658
H -0.432508 -4.506189 -0.035860
H -2.063342 1.412443 -0.803860
H -2.513931 -0.155413 1.642007
H -1.950118 1.585445 1.708921
