47

C 5.388610 1.531084 -0.529896
C 3.873383 1.698177 -0.455873
C 3.200417 0.415514 -0.027360
C 3.330549 -0.020642 1.241593
C 2.636075 -1.257218 1.746601
C 2.134604 -2.148822 0.600767
N 1.495430 -1.359884 -0.471192
C 0.256107 -0.690015 -0.015895
C -0.712921 -0.496314 -1.189173
C -2.067115 -0.064085 -0.697113
C -3.232578 -0.832991 -0.592324
C -3.400702 -2.265627 -1.014408
C -2.828964 -3.219405 0.027370
N -4.227588 -0.111199 -0.023917
C -3.709523 1.103578 0.224688
C -4.354825 2.191237 0.811362
C -3.617034 3.375772 0.989767
C -2.266308 3.445862 0.582974
C -1.641068 2.332683 -0.006542
C -2.397576 1.171145 -0.170752
C 2.467867 -0.416605 -1.064870
H 5.845772 2.467444 -0.913308
H 5.644729 0.700177 -1.219467
H 5.807053 1.319241 0.476841
H 3.504783 2.007628 -1.457299
H 3.621222 2.511964 0.257074
H 3.871542 0.583909 1.964771
H 3.336701 -1.836563 2.382817
H 1.775124 -0.945401 2.379487
H 2.991751 -2.716780 0.176615
H 1.423620 -2.905899 0.999167
H -0.256841 -1.309539 0.753061
H 0.479974 0.291483 0.457382
H -0.796154 -1.444892 -1.759155
H -0.325866 0.278522 -1.883383
H -2.904112 -2.435515 -1.992163
H -4.481463 -2.485675 -1.148674
H -3.319061 -3.058053 1.010566
H -1.736805 -3.068339 0.132119
H -3.004146 -4.266753 -0.293427
H -5.199799 -0.432933 0.183187
H -5.389702 2.127413 1.121879
H -4.087422 4.238711 1.442514
H -1.707967 4.362012 0.725125
H -0.607579 2.382887 -0.323407
H 3.223341 -0.994968 -1.639717
H 1.964464 0.247675 -1.798411
