47

C 0.093922 0.545314 2.961832
C 1.035344 0.373119 1.802638
C 2.164544 1.202403 1.723511
C 3.112329 1.039380 0.705437
O 4.221807 1.882789 0.664507
C 2.941210 0.025437 -0.261768
C 3.942174 -0.208569 -1.385808
C 5.321194 -0.610890 -0.847910
C 4.034213 0.999262 -2.326637
C 1.798422 -0.789805 -0.189961
C 0.832602 -0.610642 0.806030
O -0.296098 -1.444968 0.760514
C -1.651432 -0.994652 0.828498
O -1.761566 0.249710 0.147309
C -3.118872 0.620789 0.007660
C -3.195640 2.105206 -0.359746
O -2.645140 2.874689 0.673288
C -3.785168 -0.259979 -1.082138
O -5.175500 -0.338913 -0.876950
C -3.126138 -1.662925 -1.148634
O -4.039253 -2.610647 -1.641534
C -2.571697 -2.099409 0.223000
O -3.638060 -2.376701 1.095426
H -0.804003 1.111141 2.638019
H -0.196336 -0.444991 3.370456
H 0.573722 1.108628 3.790509
H 2.320472 1.974562 2.467399
H 4.361900 2.614925 1.350910
H 3.593588 -1.061767 -2.010222
H 5.816037 0.228606 -0.318575
H 5.222019 -1.469004 -0.149184
H 5.977037 -0.923530 -1.688417
H 3.020796 1.281583 -2.684053
H 4.495396 1.874614 -1.825601
H 4.653733 0.741324 -3.212057
H 1.636362 -1.563245 -0.931109
H -1.919257 -0.854712 1.896824
H -3.657141 0.500676 0.979027
H -2.632350 2.289282 -1.302583
H -4.259749 2.395116 -0.511938
H -2.717014 3.820217 0.380556
H -3.629009 0.209902 -2.078891
H -5.330016 -0.796514 -0.010569
H -2.261170 -1.592802 -1.851546
H -3.509821 -3.405216 -1.914134
H -1.983620 -3.034971 0.065765
H -3.264773 -2.913822 1.842519
