54

C 0.572568 -0.647258 -1.485578
C 0.853125 0.097570 -0.197951
C 0.077483 1.138938 0.184566
C -1.127810 1.622258 -0.584490
O -2.118466 0.614092 -0.651311
C -2.935336 0.600389 0.514615
O -3.275778 -0.733101 0.855013
C -3.876718 -1.437300 -0.228030
C -4.429202 -2.764275 0.323731
O -5.488617 -2.540980 1.215655
C -4.949574 -0.591011 -0.993690
O -6.042766 -1.381826 -1.393720
C -5.427796 0.577228 -0.119159
O -6.358156 1.352299 -0.830874
C -4.219104 1.450092 0.294387
O -4.531060 2.199548 1.443107
C 2.047432 -0.297943 0.660926
O 1.975087 -1.660483 1.008218
C 3.377999 0.056167 -0.039880
C 4.594576 -0.283628 0.843783
C 5.937529 0.266445 0.297000
C 7.060145 -0.100484 1.288583
C 6.260476 -0.339502 -1.086299
O 5.845298 1.668954 0.198068
H 0.562716 0.057747 -2.342265
H 1.345529 -1.411733 -1.697941
H -0.405847 -1.165971 -1.418928
H 0.316184 1.678161 1.097479
H -1.517706 2.564330 -0.133849
H -0.818603 1.884855 -1.617159
H -2.388513 1.007439 1.399240
H -3.079605 -1.719921 -0.952784
H -3.612735 -3.329355 0.829204
H -4.789303 -3.401809 -0.511698
H -5.083129 -2.260921 2.076883
H -4.456629 -0.164320 -1.901418
H -6.468946 -0.923921 -2.164865
H -5.916933 0.147810 0.787331
H -6.819305 1.926756 -0.165088
H -4.017205 2.175214 -0.525271
H -4.646702 1.560257 2.195660
H 2.019228 0.273453 1.615329
H 2.255341 -2.201021 0.225443
H 3.451336 -0.497764 -0.999476
H 3.375943 1.144611 -0.268647
H 4.426093 0.141326 1.858789
H 4.662795 -1.388736 0.953726
H 8.039663 0.285152 0.932186
H 6.857521 0.346898 2.285372
H 7.138945 -1.203541 1.402397
H 7.282485 -0.047566 -1.411251
H 6.207889 -1.449113 -1.050951
H 5.550639 0.031973 -1.854355
H 6.707518 2.009511 -0.159765
