74

C -0.510645 -4.431854 -0.442299
C -1.328601 -3.166501 -0.153327
C -2.780141 -3.547048 0.334234
C -3.437512 -2.163773 0.672342
O -4.717876 -2.302641 1.225033
O -3.498287 -1.455522 -0.548925
C -2.134559 -1.197807 -0.839690
O -1.530295 -2.393995 -1.323337
C -1.482602 -0.902469 0.503203
C -0.866074 0.487608 0.703739
O -1.869405 1.489214 0.578007
C -1.587485 2.851252 0.722138
O -0.488984 3.218171 1.223118
C -2.570217 3.858370 0.271904
C -3.829094 3.455232 -0.209261
C -4.752636 4.406028 -0.654786
C -4.427696 5.764382 -0.629837
C -3.179057 6.175623 -0.156820
C -2.253536 5.229843 0.293917
C -2.485371 -1.313355 1.571946
C -1.383473 -2.154786 2.232522
C -0.675255 -2.147800 0.868199
O 0.742053 -2.024142 0.995096
C 1.446399 -1.759922 -0.215417
O 2.048197 -2.951227 -0.702896
C 3.032672 -3.442937 0.192647
C 3.460955 -4.835053 -0.285485
O 4.350523 -5.410158 0.631587
C 4.247634 -2.472281 0.276980
O 4.591267 -2.254833 1.622536
C 3.918949 -1.125107 -0.392593
O 4.880951 -0.161407 -0.048694
C 2.516659 -0.647137 0.025231
O 2.169477 0.518362 -0.726720
C 2.447095 1.829502 -0.317149
O 3.224407 2.041344 0.653871
C 1.780034 2.962972 -0.994835
C 0.844792 2.725652 -2.019457
C 0.157004 3.789780 -2.610278
C 0.399069 5.099643 -2.191174
C 1.332747 5.348924 -1.182644
C 2.021744 4.288406 -0.586214
H 0.076846 -4.729367 0.451889
H 0.160477 -4.277577 -1.308948
H -1.174694 -5.279038 -0.717818
H -3.346822 -4.038257 -0.488018
H -2.781428 -4.250318 1.192808
H -4.602313 -2.754121 2.101856
H -2.029889 -0.371984 -1.575149
H -0.119800 0.656886 -0.084985
H -0.377266 0.558901 1.699589
H -4.100929 2.407460 -0.241798
H -5.719964 4.088665 -1.023240
H -5.142467 6.498297 -0.979079
H -2.927738 7.228224 -0.140418
H -1.289068 5.570780 0.650485
H -2.939198 -0.489654 2.165523
H -0.827419 -1.557888 2.990555
H -1.674802 -3.139367 2.648108
H 0.767018 -1.399360 -1.017402
H 2.589298 -3.585112 1.206150
H 3.939995 -4.758711 -1.287993
H 2.559844 -5.481610 -0.376784
H 4.625929 -6.278718 0.239600
H 5.130588 -2.890809 -0.262361
H 5.066151 -3.069503 1.932333
H 3.916573 -1.265281 -1.500361
H 5.700225 -0.377582 -0.566836
H 2.530861 -0.398899 1.111486
H 0.629542 1.717967 -2.351751
H -0.569933 3.597545 -3.388827
H -0.139935 5.921129 -2.644773
H 1.516892 6.364368 -0.856618
H 2.729603 4.504384 0.204391
