52

C -5.418146 4.520382 0.579115
O -4.234763 3.736826 0.669202
C -4.241375 2.341770 0.549001
O -5.331758 1.730583 0.380485
C -2.967003 1.590598 0.623031
C -1.831782 2.202920 1.026914
O -0.605767 1.500831 1.118378
C -0.439112 0.115096 0.754114
O 0.808485 -0.064579 0.117266
C 1.887275 0.076068 1.029895
O 2.524079 -1.185931 1.197198
C 3.442363 -1.449954 0.153193
C 3.800531 -2.943279 0.156357
O 2.658979 -3.720112 -0.077278
C 4.695510 -0.542518 0.300507
O 5.659259 -1.138970 1.133602
C 4.310955 0.861916 0.845334
O 4.560264 0.981761 2.227750
C 2.840931 1.196236 0.522715
O 2.476794 2.425989 1.097314
C -1.557618 -0.247356 -0.221159
C -1.769908 -1.663184 -0.635428
C -0.691455 -2.591851 -1.109204
O -0.175916 -2.125048 -2.324375
C -3.074154 -1.866246 -0.842481
C -3.892579 -0.674381 -0.426691
O -4.999814 -1.080390 0.332829
C -2.885927 0.092433 0.439932
H -5.156422 5.591150 0.708420
H -6.133034 4.224147 1.376801
H -5.888942 4.382837 -0.417035
H -1.832438 3.255669 1.273856
H -0.524920 -0.530797 1.658566
H 1.558762 0.382011 2.053278
H 2.968632 -1.243408 -0.836900
H 4.574830 -3.154448 -0.615141
H 4.216799 -3.228770 1.145348
H 2.489030 -3.693521 -1.053882
H 5.125995 -0.422119 -0.722284
H 6.516818 -0.672940 0.957107
H 4.953330 1.611782 0.333224
H 4.048020 0.275107 2.695420
H 2.743963 1.269576 -0.587384
H 2.941447 3.135950 0.580050
H -1.427289 0.357090 -1.150570
H 0.113413 -2.629209 -0.343706
H -1.099382 -3.619873 -1.239415
H 0.540436 -2.761736 -2.583034
H -3.485612 -2.761008 -1.301663
H -4.196661 -0.081221 -1.319638
H -5.678055 -1.408104 -0.313799
H -2.917064 -0.357775 1.462409
