45

C -6.019749 1.391868 0.431012
C -5.848693 0.141954 -0.009546
C -4.891104 -0.179255 -1.122631
C -3.465670 -0.046764 -0.655529
C -2.735873 1.117515 -0.928364
C -1.423754 1.251466 -0.471806
C -0.818599 0.219803 0.271410
O 0.498793 0.307866 0.752737
C 1.463206 1.303552 0.396392
O 2.545341 1.266072 1.314746
C 3.500274 0.222787 1.107661
C 4.872528 0.862767 0.827690
O 5.900373 -0.065574 1.040956
C 3.100255 -0.852567 0.050276
O 4.143835 -1.766117 -0.179082
C 2.641765 -0.220346 -1.281121
O 3.732115 -0.088044 -2.160140
C 1.937600 1.143210 -1.066105
O 2.805053 2.201432 -1.390125
C -1.548588 -0.943325 0.561645
O -0.921836 -1.951392 1.311559
C -1.532196 -3.185306 1.674913
C -2.872488 -1.070421 0.097783
H -6.721835 1.593339 1.233419
H -5.465369 2.218274 -0.003189
H -6.423970 -0.662067 0.439951
H -5.089505 0.483293 -1.993639
H -5.069807 -1.222285 -1.462623
H -3.184452 1.925501 -1.493169
H -0.896025 2.166154 -0.698871
H 0.995921 2.304429 0.508870
H 3.592942 -0.310273 2.079633
H 4.920259 1.248229 -0.212698
H 5.016893 1.723024 1.519434
H 6.747491 0.407257 0.831691
H 2.234769 -1.421921 0.464007
H 4.221570 -2.325687 0.637655
H 1.906105 -0.928327 -1.732976
H 3.352972 0.051112 -3.067377
H 1.059076 1.180197 -1.750057
H 2.241011 3.008335 -1.519999
H -0.808552 -3.788693 2.260213
H -1.814669 -3.754354 0.764095
H -2.428530 -2.997616 2.303034
H -3.448884 -1.959101 0.318264
