60

C -2.483336 0.155054 -2.008472
C -3.408862 -0.257980 -0.854654
C -2.947662 0.236728 0.552654
O -1.902398 1.196318 0.473075
C -0.643634 0.644798 0.821533
O 0.354877 1.376307 0.130436
C 1.611178 0.710185 0.196217
C 2.671183 1.643313 -0.406267
O 3.934606 0.984960 -0.512244
C 4.233674 0.040534 -1.505476
O 3.410445 -0.180068 -2.436111
C 5.518894 -0.691015 -1.465030
C 5.864946 -1.591375 -2.488528
C 7.078470 -2.281764 -2.443220
C 7.960637 -2.084888 -1.373967
O 9.173209 -2.763153 -1.319385
C 7.621841 -1.196058 -0.351261
C 6.409942 -0.500846 -0.395064
C 2.001336 0.292888 1.654100
O 1.887255 -1.101743 1.794127
C 1.084774 1.005453 2.672812
O 1.396812 0.665938 4.001677
C -0.417695 0.796426 2.351199
O -0.962573 -0.291332 3.057503
C -4.182995 0.891938 1.202073
C -5.341515 0.330327 0.405428
C -6.672345 1.080521 0.450226
C -7.701495 0.274825 -0.373508
O -7.174710 -0.210410 -1.624542
C -5.805702 -0.400101 -1.871816
O -5.433817 -1.056494 -2.879759
C -4.816039 0.321241 -1.009424
H -1.473885 -0.281736 -1.860007
H -2.883145 -0.222177 -2.973015
H -2.394318 1.259781 -2.071301
H -3.470885 -1.369813 -0.839381
H -2.688843 -0.655306 1.172277
H -0.576900 -0.431932 0.515930
H 1.565224 -0.192958 -0.453881
H 2.786017 2.535464 0.246662
H 2.345287 2.000682 -1.407831
H 5.198485 -1.759765 -3.324759
H 7.333324 -2.966085 -3.240271
H 9.454349 -3.403238 -2.050415
H 8.300707 -1.042656 0.477557
H 6.169638 0.181295 0.409606
H 3.051851 0.592483 1.890542
H 2.681573 -1.502300 1.345269
H 1.290121 2.095018 2.566958
H 1.346176 -0.322808 4.092348
H -0.951983 1.709678 2.695579
H -0.520986 -1.116211 2.734288
H -4.147821 1.998959 1.095480
H -4.267522 0.631213 2.279148
H -5.512624 -0.716385 0.757388
H -7.020343 1.171446 1.501750
H -6.565038 2.102603 0.026596
H -8.024748 -0.602987 0.227145
H -8.599784 0.899096 -0.570489
H -4.743226 1.368114 -1.385679
