58

C 4.914543 -0.434979 1.410110
C 4.091170 -1.541748 0.820829
C 2.747527 -1.503567 0.747251
C 1.946792 -2.655375 0.159014
N 0.533671 -2.220575 -0.013659
C -0.103474 -1.919362 1.322433
C 0.888847 -1.080389 2.196700
C 1.867133 -0.365417 1.246538
C 1.098438 0.237185 -0.001395
C 2.066327 1.116286 -0.779110
O 2.585514 2.116834 -0.209453
O 2.387333 0.830086 -2.113075
C 3.294518 1.621792 -2.868839
C 0.565862 -0.988010 -0.851879
C -0.847413 -0.651698 -1.222607
C -1.332164 -0.004290 0.061038
C -2.783113 0.342906 -0.087392
C -3.394604 1.406501 -0.757937
C -4.789131 1.379230 -0.922828
C -5.540996 0.280288 -0.464299
C -4.904844 -0.804971 0.158669
C -3.518053 -0.757107 0.327045
N -2.696633 -1.755302 0.944942
C -2.872587 -3.194640 0.764153
C -1.420647 -1.071598 1.184532
C -0.225510 1.026640 0.374375
O -0.409075 2.171752 -0.465942
C -0.154665 3.489145 -0.065732
C -0.263042 4.587435 -1.069636
O 0.184501 3.757392 1.116100
H 5.992298 -0.696969 1.344637
H 4.651829 -0.292518 2.480496
H 4.743660 0.509312 0.850032
H 4.614897 -2.413363 0.436249
H 1.997009 -3.538105 0.832768
H 2.372251 -2.955518 -0.825126
H -0.323913 -2.867526 1.854779
H 1.443127 -1.759968 2.886102
H 0.405935 -0.344708 2.873839
H 2.424664 0.414491 1.807574
H 3.314555 1.251881 -3.917202
H 2.964654 2.684558 -2.866726
H 4.316533 1.544327 -2.433859
H 1.137909 -1.181139 -1.787328
H -1.425941 -1.559043 -1.510741
H -0.867018 0.070188 -2.070891
H -2.817868 2.227118 -1.159855
H -5.287758 2.199868 -1.420639
H -6.614639 0.267736 -0.601609
H -5.482334 -1.649735 0.508107
H -2.346588 -3.525927 -0.156352
H -2.466676 -3.738472 1.641520
H -3.949401 -3.446738 0.677630
H -1.587513 -0.538213 2.150428
H -0.257651 1.330135 1.443297
H -1.042602 4.337405 -1.821206
H 0.715139 4.714572 -1.585231
H -0.540780 5.541907 -0.570632
