50

C -2.681903 -2.661350 -3.463792
C -2.504058 -1.306538 -2.841975
C -1.848857 -1.106728 -1.678302
C -1.220647 -2.246137 -0.892596
N -0.293076 -1.737192 0.147853
C 0.346590 -2.881562 0.824949
C -0.954274 -0.820045 1.126334
C 0.098975 -0.075743 2.000682
C 1.315617 0.450838 1.279535
C 1.363397 1.422312 0.274220
N 2.629624 1.854521 0.076694
C 3.390330 1.181505 0.952569
C 4.766440 1.306058 1.138277
C 5.368374 0.526928 2.141347
C 4.589527 -0.345465 2.931131
C 3.202425 -0.449742 2.722828
C 2.629909 0.326462 1.710100
C 0.252318 1.856439 -0.575102
O -0.046238 3.078434 -0.634823
C -0.373107 0.879845 -1.521725
C -1.739276 0.283748 -1.088620
C -2.003889 0.118966 0.431543
C -2.378864 1.390406 1.162062
O -2.706954 1.328849 2.379489
O -2.494607 2.600010 0.470812
C -2.873801 3.814375 1.106491
H -3.194607 -3.344044 -2.753931
H -3.302320 -2.572211 -4.379966
H -1.695864 -3.084706 -3.747517
H -2.941666 -0.457878 -3.360787
H -2.027588 -2.859144 -0.431755
H -0.648764 -2.884540 -1.600918
H 0.820966 -3.558076 0.081528
H -0.392808 -3.463555 1.418239
H 1.163762 -2.537274 1.490014
H -1.548074 -1.435373 1.844086
H -0.340803 0.759499 2.575269
H 0.427301 -0.783113 2.788545
H 2.952688 2.556766 -0.626183
H 5.353409 1.985921 0.534348
H 6.434527 0.600239 2.311967
H 5.062727 -0.938085 3.703217
H 2.611868 -1.121746 3.329769
H 0.369409 0.071851 -1.710926
H -0.507176 1.381458 -2.505058
H -2.547460 0.928705 -1.503719
H -2.965546 -0.447008 0.479210
H -3.889327 3.713659 1.544514
H -2.143541 4.069175 1.903546
H -2.885086 4.630285 0.355152
