77

C -3.556377 -6.395892 -0.628773
O -2.676815 -5.461199 -1.215786
C -2.831508 -4.163428 -0.660829
C -2.465625 -4.068811 0.873822
C -2.532096 -2.528364 1.179898
C -2.140109 -2.224667 2.626673
O -3.875860 -2.150840 0.941026
C -4.021700 -2.296887 -0.462657
O -4.155523 -3.673045 -0.781960
C -2.696547 -1.866989 -1.056536
C -2.734094 -0.729366 -2.092801
O -3.250244 0.445145 -1.477163
C -3.342079 1.677924 -2.127808
O -3.035059 1.775059 -3.347669
C -3.791267 2.867443 -1.372197
C -3.943877 4.112513 -2.009347
C -4.362323 5.231639 -1.281831
C -4.630436 5.121165 0.084533
C -4.480488 3.890123 0.727215
C -4.064290 2.767404 0.004903
C -1.978221 -3.136015 -1.479135
C -0.733490 -2.643314 -0.724218
C -1.698794 -1.753356 0.093445
O -1.351983 -0.404565 0.375462
C -0.049931 -0.285796 0.918363
O 0.882662 -0.170560 -0.147789
C 2.146201 0.394458 0.202083
C 3.226919 -0.313997 -0.629850
O 4.524393 0.225324 -0.380835
C 4.965012 1.452805 -0.894359
O 4.205117 2.144824 -1.628811
C 6.330974 1.929094 -0.589827
C 7.139958 1.230546 0.324143
C 8.438428 1.672415 0.599794
C 8.940701 2.810700 -0.033527
C 8.145033 3.513781 -0.940631
C 6.845498 3.078571 -1.217427
C 2.485718 0.366018 1.718755
O 2.664435 -0.964170 2.139606
C 1.355158 1.043555 2.541102
O 1.677707 2.377207 2.857892
C -0.021673 0.951411 1.837656
O -0.271595 2.111786 1.082351
H -4.610714 -6.041653 -0.607455
H -3.537685 -7.325137 -1.238222
H -3.213378 -6.667957 0.390599
H -1.479029 -4.517115 1.107484
H -3.225717 -4.597469 1.492108
H -2.822008 -2.758363 3.321199
H -1.103330 -2.564016 2.828217
H -2.223417 -1.137602 2.832374
H -4.889705 -1.713086 -0.836598
H -1.710926 -0.527660 -2.477560
H -3.386014 -1.023157 -2.943774
H -3.739767 4.222109 -3.067144
H -4.477165 6.187223 -1.777360
H -4.953980 5.988741 0.644861
H -4.686837 3.805596 1.786945
H -3.953353 1.823981 0.525805
H -1.894499 -3.295433 -2.576895
H -0.155157 -3.404533 -0.162732
H -0.078390 -2.063221 -1.410451
H 0.210428 -1.177805 1.532236
H 2.130544 1.459992 -0.115801
H 2.984613 -0.238955 -1.712787
H 3.240197 -1.393556 -0.370551
H 6.769838 0.346172 0.826346
H 9.057921 1.129294 1.301027
H 9.947102 3.147715 0.176328
H 8.535181 4.394652 -1.433571
H 6.248119 3.635236 -1.929850
H 3.437794 0.925751 1.880140
H 3.163851 -0.929896 2.997158
H 1.269808 0.502008 3.509159
H 1.922740 2.841943 2.014014
H -0.805964 0.844401 2.622082
H -1.253008 2.162151 0.938442
