49

C -1.982260 3.721537 -0.518943
O -2.544867 2.567641 -1.105903
C -2.572666 1.491184 -0.183128
O -3.734754 0.722625 -0.476504
C -3.763797 -0.483358 0.275919
O -4.974744 -1.148893 0.031328
C -2.557811 -1.423908 -0.081892
C -1.614244 -0.681970 -1.054778
C -0.342628 -1.512422 -1.304818
C 0.437331 -1.677605 0.023515
C 1.730179 -0.915987 -0.032394
N 2.864647 -1.308041 -0.655556
C 3.715423 -0.271380 -0.518385
C 5.027329 -0.187708 -0.982134
C 5.742395 0.996666 -0.722827
C 5.137654 2.059892 -0.014504
C 3.810799 1.951145 0.440727
C 3.128768 0.767520 0.167509
C 1.846834 0.363735 0.463123
C 0.767679 1.048712 1.234800
C -0.577777 0.301987 1.039573
C -1.259779 0.644776 -0.347046
N -0.382047 -1.178609 1.170781
C -1.726745 -1.826158 1.193548
C -1.632624 -3.352484 1.361393
H -2.648337 4.123839 0.275551
H -1.880089 4.502114 -1.300297
H -0.969004 3.520455 -0.109748
H -2.686297 1.869501 0.862345
H -3.773256 -0.213913 1.354533
H -5.066610 -1.232964 -0.954010
H -2.937776 -2.333378 -0.600801
H -2.119294 -0.492955 -2.029261
H 0.272279 -1.019549 -2.091044
H -0.628750 -2.512286 -1.698231
H 0.702893 -2.744639 0.179981
H 3.038603 -2.214229 -1.144684
H 5.483351 -1.007020 -1.522639
H 6.763416 1.093490 -1.068216
H 5.698721 2.964971 0.178287
H 3.338030 2.760691 0.981649
H 0.682843 2.109006 0.918257
H 1.045221 1.029170 2.310532
H -1.222203 0.637354 1.882011
H -0.542144 1.194088 -0.998169
H -2.237340 -1.490169 2.122247
H -0.930250 -3.602610 2.184652
H -2.633151 -3.761863 1.617585
H -1.293148 -3.848001 0.428156
