52

C -1.310414 3.683508 1.583540
O -0.941158 2.701143 0.623666
C -0.558998 1.401969 0.978765
O -0.545659 1.067235 2.197341
C -0.119461 0.387799 -0.073402
C -0.247787 0.963638 -1.533313
C -1.413624 0.282225 -2.287231
C -2.699934 0.390979 -1.426063
C -2.571129 -0.504873 -0.155546
C -3.321668 0.064287 1.080114
C -4.841636 0.008924 0.875580
O -2.987984 -0.681989 2.222190
C -1.055081 -0.885012 0.032401
N -0.786690 -1.806426 -1.099414
C 0.363219 -2.712819 -0.975131
C 1.710758 -2.054377 -1.269548
C 2.103335 -1.031007 -0.249737
C 1.353027 0.059957 0.223728
N 2.173513 0.898454 0.917324
C 3.395182 0.349047 0.905864
C 4.558035 0.877588 1.465838
C 5.756696 0.165469 1.288716
C 5.767906 -1.038107 0.552534
C 4.580276 -1.540214 -0.009403
C 3.398760 -0.820310 0.198789
C -1.048717 -1.211963 -2.438264
H -0.461046 3.879313 2.271702
H -2.191622 3.337800 2.164073
H -1.572726 4.624718 1.058624
H 0.687176 0.788126 -2.111331
H -0.390685 2.062601 -1.562692
H -1.565394 0.753191 -3.282725
H -3.577162 0.065124 -2.026797
H -2.865330 1.455509 -1.149951
H -3.089715 -1.465915 -0.385802
H -3.061763 1.132356 1.231274
H -5.356829 0.431504 1.764250
H -5.138876 0.607009 -0.011440
H -5.180279 -1.040179 0.737851
H -3.213025 -0.121392 3.010370
H -0.904329 -1.412987 0.999688
H 0.382896 -3.164221 0.041170
H 0.223206 -3.554348 -1.687735
H 1.751538 -1.594938 -2.275020
H 2.462907 -2.869774 -1.277660
H 1.935884 1.821137 1.345174
H 4.541159 1.810607 2.014203
H 6.676888 0.546879 1.711730
H 6.697215 -1.575192 0.414106
H 4.596575 -2.457055 -0.582057
H -1.901311 -1.750972 -2.904409
H -0.196118 -1.324028 -3.135928
