53

C -2.431540 4.249760 1.479750
O -2.328526 2.832819 1.414561
C -3.441958 1.998457 1.281912
O -4.601783 2.497066 1.261420
C -3.275483 0.525333 1.215349
C -4.194338 -0.244522 1.831698
O -4.155928 -1.645305 1.774226
C -3.255230 -2.373167 0.939407
C -3.952014 -2.698881 -0.388767
C -1.938049 -1.576214 0.798233
C -0.891310 -2.255802 -0.099873
N 0.380984 -1.497637 -0.034778
C 1.493566 -2.203899 -0.743311
C 1.665988 -3.623207 -0.262871
O 1.726600 -4.568142 -1.094424
O 1.779838 -3.889443 1.099005
C 2.840921 -1.474943 -0.517759
C 2.668977 -0.008956 -0.709977
C 1.449966 0.629807 -0.670873
N 1.595959 1.961950 -0.875734
C 2.923489 2.160338 -0.991753
C 3.582107 3.371103 -1.201156
C 4.986138 3.348038 -1.297267
C 5.692774 2.129026 -1.186684
C 5.002677 0.920306 -0.980667
C 3.613356 0.976434 -0.888470
C 0.153787 -0.132362 -0.598987
C -0.881588 0.636734 0.250251
C -2.215764 -0.132336 0.327678
H -2.901444 4.639445 0.551993
H -3.037308 4.546939 2.361843
H -1.415581 4.684201 1.577748
H -4.981314 0.211396 2.420092
H -3.030211 -3.338784 1.442553
H -4.893101 -3.251008 -0.181836
H -4.214657 -1.777280 -0.946403
H -3.315358 -3.350231 -1.021789
H -1.495967 -1.519019 1.820543
H -0.760130 -3.288844 0.284164
H -1.247531 -2.322067 -1.152299
H 1.280708 -2.221495 -1.838105
H 1.901105 -4.837393 1.434551
H 3.206464 -1.640664 0.519334
H 3.602400 -1.858282 -1.231204
H 0.847404 2.685744 -0.949853
H 3.032891 4.299878 -1.285673
H 5.528358 4.270737 -1.457796
H 6.772223 2.124589 -1.263409
H 5.534550 -0.018797 -0.899334
H -0.230737 -0.211597 -1.642387
H -1.067388 1.612702 -0.242820
H -0.479064 0.807937 1.273615
H -2.629927 -0.160462 -0.703667
