28

C 2.657859 0.310947 1.202652
C 1.425448 0.555784 0.365595
C 0.789727 1.736879 0.482253
C -0.456982 2.085961 -0.234760
O -0.615936 3.284890 -0.588808
C -1.567907 1.089729 -0.529922
O -2.810738 1.709115 -0.299826
C -1.445810 -0.230948 0.290058
C -2.774754 -1.006931 0.319541
C -0.332271 -1.166786 -0.248633
C 0.969991 -0.458612 -0.676371
C 2.043241 -1.501618 -1.031476
H 3.565318 0.379760 0.567665
H 2.753734 1.048703 2.028256
H 2.604794 -0.694988 1.667732
H 1.209992 2.505416 1.120652
H -1.524424 0.840029 -1.612055
H -2.847503 1.953497 0.662845
H -1.206497 0.028217 1.346202
H -3.131816 -1.209260 -0.713166
H -2.644404 -1.974934 0.849523
H -3.553406 -0.433135 0.864795
H -0.099273 -1.916315 0.540520
H -0.717282 -1.726655 -1.130637
H 0.776952 0.089803 -1.625505
H 2.275632 -2.153686 -0.163206
H 1.683827 -2.146575 -1.861818
H 2.972487 -0.998288 -1.373207
