56

C 5.010677 0.496925 -0.272261
C 3.621931 0.831332 0.188985
C 2.593331 -0.045823 0.155617
C 2.777123 -1.482548 -0.297308
N 1.479738 -2.094504 -0.661407
C 1.680448 -3.510310 -1.016522
C 0.385346 -1.929561 0.343721
C 0.703472 -0.889248 1.424138
C 1.233079 0.351605 0.720829
C 0.183156 0.966225 -0.337189
C 0.909327 1.230530 -1.713886
O 1.237650 0.041971 -2.374424
C -0.209949 2.354212 0.189000
O -0.470830 3.297981 -0.610307
O -0.364046 2.564539 1.566705
C -0.711803 3.827799 2.120462
C -1.164456 0.051983 -0.506616
C -1.852221 0.119312 -1.878549
C -1.527986 -1.199245 -2.556423
O -1.043518 -2.132951 -1.620147
C -0.937339 -1.508934 -0.357842
N -2.033723 -1.983013 0.488258
C -2.710726 -0.884889 1.046094
C -3.808645 -0.965283 1.903061
C -4.494286 0.213618 2.221298
C -4.109709 1.428715 1.631808
C -3.017031 1.471430 0.752187
C -2.256017 0.306608 0.539703
H 5.008864 0.277955 -1.360494
H 5.400405 -0.378446 0.288710
H 5.682059 1.361872 -0.089721
H 3.452355 1.835104 0.569752
H 3.268969 -2.055682 0.520395
H 3.436628 -1.505930 -1.191456
H 2.385737 -3.593951 -1.871135
H 2.084976 -4.083580 -0.153101
H 0.722890 -3.974154 -1.333883
H 0.219631 -2.892475 0.883490
H -0.180796 -0.644468 2.048906
H 1.463754 -1.295970 2.129751
H 1.446162 1.067287 1.544667
H 1.831676 1.828914 -1.543898
H 0.312819 1.864841 -2.400802
H 1.746931 0.302367 -3.185431
H 0.060010 4.582079 1.858599
H -1.701179 4.154290 1.736467
H -0.767803 3.737762 3.224512
H -1.589443 0.987290 -2.505575
H -2.962457 0.172181 -1.788973
H -2.436440 -1.614148 -3.043980
H -0.768625 -1.051525 -3.351104
H -2.236214 -2.983949 0.709618
H -4.142906 -1.919562 2.288936
H -5.351075 0.179677 2.881559
H -4.681887 2.326730 1.825194
H -2.808034 2.387012 0.220015
