53

C 5.630825 1.576491 0.814718
C 4.834978 1.609992 -0.486795
C 4.111735 0.304118 -0.715251
C 4.798124 -0.783993 -1.116923
C 4.134230 -2.117374 -1.327385
C 2.618313 -1.982778 -1.487496
N 2.084430 -1.097783 -0.435655
C 0.604492 -1.109354 -0.444335
C 0.058660 -0.790330 0.951828
C -1.441566 -0.708739 0.924690
C -2.227880 0.394375 0.574092
C -1.717755 1.770927 0.224314
C -1.855969 2.707347 1.426476
C -2.439189 2.307465 -0.981160
O -1.981157 2.071990 -2.133057
O -3.636924 3.014135 -0.826770
C -4.382886 3.508467 -1.931810
N -3.544004 0.076015 0.643724
C -3.594832 -1.219413 0.996702
C -4.736292 -2.000303 1.172077
C -4.562072 -3.348871 1.531751
C -3.265579 -3.881319 1.704864
C -2.131342 -3.069715 1.521907
C -2.335147 -1.734580 1.169249
C 2.599945 0.275737 -0.637741
H 6.121630 2.559030 0.974938
H 6.416333 0.792139 0.771623
H 4.954928 1.372300 1.672681
H 4.104725 2.446724 -0.432739
H 5.518076 1.819437 -1.338748
H 5.879812 -0.736489 -1.207597
H 4.355405 -2.760205 -0.448835
H 4.560458 -2.602928 -2.230731
H 2.180162 -3.001905 -1.401624
H 2.375523 -1.585819 -2.499941
H 0.215924 -2.116510 -0.720016
H 0.198211 -0.393311 -1.195379
H 0.465097 0.168730 1.331072
H 0.381266 -1.580354 1.662746
H -0.638324 1.715459 -0.032078
H -1.250924 2.323259 2.275281
H -2.916020 2.783450 1.751655
H -1.484599 3.721434 1.165307
H -4.703250 2.665966 -2.581190
H -5.283632 4.035175 -1.556134
H -3.766235 4.222046 -2.518118
H -4.357423 0.703978 0.457152
H -5.725682 -1.584587 1.032479
H -5.427223 -3.983043 1.674158
H -3.143547 -4.921123 1.978911
H -1.136356 -3.475019 1.649693
H 2.196373 0.718997 -1.576219
H 2.286153 0.920662 0.209644
