96

C -3.933744 -0.767250 -2.902391
C -4.263759 0.810982 -2.975677
C -4.532783 1.174179 -1.945555
C -6.413060 0.669975 -2.187561
N -6.944333 0.816613 -0.721162
C -7.630887 2.129894 -0.735958
C -5.984446 0.836962 0.536452
C -5.514457 -0.489927 1.420657
C -4.101542 -1.363929 1.287471
C -2.674284 -1.048002 1.235688
N -1.915312 -2.103541 0.905781
C -2.773866 -3.076107 0.701320
C -2.434015 -4.378115 0.260069
C -3.426670 -5.346665 0.028099
C -4.752495 -4.953587 0.304501
C -5.090024 -3.615635 0.639969
C -4.049884 -2.715713 0.944697
C -2.043888 0.383083 1.181927
C -0.464729 0.297513 1.322491
C 0.058873 -0.321982 2.512670
C 1.410755 -0.671777 2.572157
C 2.185571 -0.526770 1.354566
C 3.492057 -0.884794 1.070673
C 3.675174 -0.377962 -0.255980
N 2.674138 0.444512 -0.575691
C 1.797900 0.386544 0.444675
C 0.476919 0.833728 0.397089
C 5.017332 -0.435592 -0.809164
C 5.608451 -0.563376 -2.142489
C 7.164774 -0.746572 -1.946817
C 7.731665 0.632064 -1.606729
C 6.895710 1.277705 -0.456567
C 7.813767 1.932819 0.572144
C 8.560836 3.180871 -0.039524
C 6.005394 0.182073 0.254703
N 6.803658 -0.978353 0.688712
C 5.992235 -1.966058 1.447604
C 4.531084 -1.486947 2.014854
C 7.456486 -1.598935 -0.545295
C -2.364848 1.005243 -0.192923
C -3.834484 0.876709 -0.552988
C -4.762253 1.702434 0.305988
C -4.659976 3.181495 0.378103
O -5.369538 3.829208 -0.471182
O -3.601063 3.779064 1.134556
C -3.641071 3.730941 2.607303
H -4.737992 -1.542813 -2.407284
H -3.037090 -0.727098 -2.098980
H -3.623927 -1.041047 -3.996633
H -4.995902 1.384026 -3.686808
H -4.780326 1.992858 -2.346059
H -3.271050 1.270942 -2.272837
H -7.279275 1.344783 -3.022344
H -6.653504 -0.373674 -2.651195
H -8.666730 1.769904 -1.305596
H -7.096324 2.831133 -1.561584
H -8.166347 2.393325 0.340688
H -6.502391 1.381731 1.338872
H -6.369501 -1.206537 1.497636
H -5.347215 -0.014732 2.458099
H -1.085162 -1.962885 0.317740
H -1.338629 -4.637937 0.098141
H -3.146006 -6.329000 -0.251757
H -5.533513 -5.746527 0.035797
H -6.170996 -3.371670 0.625181
H -2.282689 1.072138 2.005343
H -0.555625 -0.729474 3.261233
H 1.858186 -1.190873 3.441484
H 2.637134 1.046923 -1.444861
H 0.223164 1.450123 -0.461693
H 4.960778 -1.560338 -0.687219
H 5.430517 0.346463 -2.800709
H 5.251179 -1.413317 -2.781798
H 7.724961 -1.233593 -2.783354
H 7.658264 1.273348 -2.532331
H 8.838620 0.566446 -1.373145
H 6.238404 2.025785 -0.847793
H 8.558327 1.246865 0.972689
H 7.197287 2.351175 1.416802
H 7.830651 3.871169 -0.500248
H 9.134563 3.663386 0.735333
H 9.272676 2.809739 -0.833292
H 5.527348 0.679149 1.089252
H 6.567941 -2.266867 2.366864
H 5.813167 -2.922666 0.919363
H 4.081526 -2.366721 2.518712
H 4.738176 -0.753345 2.814030
H 7.129905 -2.648791 -0.736681
H 8.599184 -1.650502 -0.378419
H -1.721197 0.503887 -0.989189
H -2.020767 2.040482 -0.329777
H -4.089929 -0.057948 -0.551365
H -4.282414 1.494155 1.275258
H -2.537005 3.450127 2.863512
H -3.826575 4.888729 2.821375
H -4.329240 2.922543 2.958281
