47

C 2.049321 3.921872 -0.440303
C 2.195070 2.449368 -0.174611
C 1.059056 1.654234 0.033162
C 1.177726 0.274607 0.294528
O 0.049628 -0.542714 0.494410
C -1.299621 -0.240422 0.131245
O -2.139388 -1.187541 0.766886
C -3.523542 -0.868836 0.636037
C -3.993403 0.019597 1.797053
O -3.686684 -0.595461 3.017679
C -3.902463 -0.262391 -0.748560
O -5.225178 -0.591697 -1.097412
C -2.901733 -0.742807 -1.815875
O -3.226697 -0.208301 -3.074895
C -1.461961 -0.333684 -1.412358
O -1.079736 0.873688 -2.024902
C 2.464053 -0.306284 0.378272
C 2.636242 -1.793154 0.662803
C 3.292577 -2.508234 -0.524384
C 3.431351 -2.023656 1.954136
C 3.597825 0.503618 0.177045
C 3.469084 1.869498 -0.094754
O 4.607175 2.654059 -0.283559
H 2.651586 4.208646 -1.328181
H 2.405106 4.494695 0.441615
H 0.992201 4.198399 -0.640500
H 0.089190 2.126182 0.001158
H -1.557198 0.774651 0.502419
H -4.066805 -1.834067 0.737614
H -3.502063 1.016087 1.746590
H -5.094466 0.166659 1.722826
H -4.017522 0.016694 3.725315
H -3.837955 0.847373 -0.697027
H -5.267524 -1.574591 -1.232401
H -2.939467 -1.858307 -1.862297
H -3.963381 -0.762155 -3.443841
H -0.777950 -1.126046 -1.789411
H -1.714832 1.576171 -1.726574
H 1.647565 -2.276108 0.814182
H 3.325338 -3.603030 -0.338136
H 4.330339 -2.147974 -0.687445
H 2.701063 -2.331236 -1.448230
H 2.947821 -1.487904 2.798853
H 3.453143 -3.107356 2.198150
H 4.477935 -1.666554 1.853643
H 4.589755 0.074076 0.230454
H 5.539418 2.260337 -0.230421
