53

C -3.474244 2.760807 2.050575
C -2.297931 1.783814 2.042239
C -1.565557 1.757667 0.681376
C -2.418792 1.130229 -0.469845
C -1.672531 -0.067520 -1.119579
C -0.330334 0.441199 -1.702436
C 0.492809 1.151311 -0.590400
C 1.935343 0.723444 -0.548999
N 2.922746 1.456506 -1.117243
C 4.059457 0.772820 -0.917170
C 5.337641 1.121720 -1.351305
C 6.393372 0.238177 -1.066350
C 6.149337 -0.964303 -0.368623
C 4.848221 -1.292421 0.053462
C 3.819381 -0.390172 -0.231946
C 2.458892 -0.436961 0.031035
C 1.711770 -1.602629 0.612612
C 0.606035 -1.214293 1.614067
N -0.518981 -0.436348 1.053402
C -1.307944 -1.106449 -0.021550
C -2.534300 -1.816071 0.592387
C -3.325549 -2.576213 -0.442090
C -4.722463 -2.170872 -0.808645
O -2.824549 -3.546346 -0.990148
C -0.215105 0.993366 0.781669
H -4.250222 2.455773 1.318695
H -3.934817 2.775446 3.060811
H -3.125907 3.787131 1.807686
H -2.659388 0.772655 2.317178
H -1.586033 2.106369 2.833079
H -1.340576 2.816295 0.416769
H -3.415524 0.798005 -0.114968
H -2.610893 1.901434 -1.247696
H -2.285817 -0.522290 -1.927222
H -0.532276 1.151178 -2.534407
H 0.234890 -0.413090 -2.137606
H 0.505984 2.238426 -0.832728
H 2.820709 2.363040 -1.626384
H 5.512443 2.040658 -1.895798
H 7.397900 0.478820 -1.389129
H 6.968349 -1.640166 -0.159688
H 4.663401 -2.217599 0.581864
H 1.341870 -2.241327 -0.210729
H 2.427923 -2.237689 1.174048
H 0.199438 -2.149855 2.054553
H 1.062255 -0.655376 2.460421
H -0.720537 -1.903942 -0.515468
H -3.184506 -1.095299 1.123280
H -2.185770 -2.541344 1.358669
H -5.047354 -1.274637 -0.240224
H -5.421166 -3.004796 -0.588360
H -4.766779 -1.935894 -1.892665
H 0.405680 1.437614 1.592614
