30

C 3.692251 0.410693 -0.094009
C 2.383185 0.134673 -0.181189
C 1.436025 1.129589 -0.807565
C 0.181342 0.410906 -1.313709
C -0.599593 -0.354177 -0.186807
O -1.284845 -1.442964 -0.767364
C -1.633820 0.575607 0.564142
C -2.445673 -0.208519 1.616940
C -2.623401 1.318350 -0.359754
C 0.403194 -0.952368 0.863583
C 1.835205 -1.173220 0.341806
O 1.850489 -2.131566 -0.683340
H 4.383745 -0.299832 0.348653
H 4.088216 1.351078 -0.465517
H 1.160863 1.905156 -0.061310
H 1.925837 1.629992 -1.671882
H -0.453648 1.126082 -1.867014
H 0.507069 -0.322039 -2.085702
H -1.786140 -1.116231 -1.558528
H -1.064204 1.361759 1.108126
H -3.049478 -1.005772 1.133517
H -3.134089 0.473077 2.160995
H -1.785749 -0.670120 2.378976
H -3.406605 1.826660 0.242671
H -2.118850 2.124593 -0.928128
H -3.132637 0.624501 -1.058725
H 0.492720 -0.271902 1.740122
H 0.012258 -1.915557 1.260317
H 2.463630 -1.524892 1.194372
H 1.702702 -3.013559 -0.252173
