50

C 7.339165 -0.478888 -0.409017
C 6.166929 -0.134529 -0.954507
C 5.000011 0.373105 -0.117229
C 4.529649 -0.728438 0.849888
O 5.427216 1.466864 0.661552
C 3.828585 0.842419 -1.030245
C 3.139903 -0.271555 -1.853985
C 1.947895 -0.854910 -1.137215
C 0.718614 -0.296132 -1.118466
C 0.410275 0.960847 -1.897228
C -0.391963 -0.979507 -0.409948
O -0.163413 -1.986460 0.316424
O -1.701097 -0.504464 -0.556489
C -2.824422 -1.034013 0.150997
O -4.018941 -0.627956 -0.504942
C -4.376949 0.696349 -0.153762
C -5.416295 1.225081 -1.153608
O -6.554358 0.404537 -1.186684
C -4.914109 0.735157 1.304504
O -4.806248 2.035585 1.830329
C -4.180609 -0.293197 2.211445
O -4.949337 -1.462567 2.372012
C -2.774873 -0.616749 1.655792
O -2.124557 -1.582636 2.444785
H 7.500541 -0.416583 0.662440
H 8.152048 -0.820799 -1.041362
H 6.072066 -0.190952 -2.035384
H 3.595906 -0.418603 1.366550
H 5.299502 -0.917636 1.627986
H 4.348058 -1.683130 0.312857
H 5.761754 2.170996 0.044992
H 4.223168 1.599968 -1.743400
H 3.079109 1.375490 -0.404633
H 2.823159 0.128767 -2.841089
H 3.855203 -1.090457 -2.076961
H 2.109558 -1.800319 -0.633920
H -0.503457 1.459166 -1.511758
H 0.250984 0.703802 -2.965256
H 1.230073 1.702514 -1.820268
H -2.795055 -2.143124 0.078280
H -3.489758 1.367970 -0.244272
H -4.959654 1.293978 -2.167732
H -5.724090 2.251444 -0.860325
H -6.330725 -0.373077 -1.761749
H -5.995219 0.474271 1.307163
H -3.839885 2.253289 1.900059
H -4.053422 0.148171 3.224593
H -5.116311 -1.848065 1.473350
H -2.177972 0.319344 1.731142
H -2.626655 -2.434370 2.360609
