77

C 0.594574 1.929897 0.085976
C -0.762132 1.622680 0.728599
C -0.803731 2.091758 2.228775
C -2.017906 1.446310 2.995147
O -3.101741 2.342483 3.026671
C -2.452938 0.102499 2.317926
C -1.155100 -0.643590 1.967973
C -1.211680 0.105634 0.614329
O -0.842537 -0.494428 -0.626509
C -0.406165 -1.839549 -0.549483
O 0.741585 -1.970201 0.284281
C 1.916110 -1.539687 -0.377259
C 3.011791 -1.346502 0.673971
O 4.163409 -0.755164 0.083443
C 5.337500 -0.522821 0.805569
O 5.432720 -0.922490 1.997695
C 6.464242 0.192415 0.169701
C 6.301469 0.788817 -1.089205
C 7.361699 1.479112 -1.691258
O 7.191106 2.080110 -2.937725
C 8.601935 1.579730 -1.043935
O 9.624237 2.283903 -1.686998
C 8.775865 0.975576 0.223876
O 9.982204 1.022162 0.921773
C 7.708453 0.290050 0.816906
C 2.304285 -2.531377 -1.514814
O 3.299071 -3.444275 -1.108774
C 1.064115 -3.314046 -2.008823
O 0.819411 -4.433827 -1.193427
C -0.174772 -2.408492 -1.985479
O -0.004489 -1.356749 -2.909021
C -2.730442 0.274949 0.786206
C -3.587674 -0.851994 0.157461
O -4.982459 -0.595635 0.332342
C -5.841478 -0.232212 -0.715106
O -5.405661 -0.157771 -1.897905
C -7.255884 0.084352 -0.427544
C -7.760657 -0.025449 0.883901
C -9.097051 0.290746 1.156122
C -9.940983 0.713148 0.126795
C -9.450616 0.819547 -1.177969
C -8.118104 0.501351 -1.457112
C -2.973169 1.637802 0.221238
O -4.099688 2.126818 -0.056404
O -1.796045 2.333611 0.069358
H 0.819374 3.011701 0.188221
H 1.393622 1.357689 0.597509
H 0.580982 1.677044 -0.994581
H -0.861206 3.200690 2.276255
H 0.141148 1.809090 2.744368
H -1.687838 1.229391 4.042401
H -3.696253 2.036871 3.757636
H -3.199372 -0.495931 2.887246
H -1.360180 -1.733636 1.929699
H -0.257272 -0.428600 2.591459
H -1.212285 -2.466855 -0.112351
H 1.742235 -0.543386 -0.839097
H 2.633438 -0.678158 1.475090
H 3.273099 -2.318687 1.143694
H 5.350725 0.735763 -1.604607
H 6.308820 2.022465 -3.435516
H 10.551805 2.394054 -1.304659
H 10.807130 1.501816 0.593097
H 7.854566 -0.170442 1.785074
H 2.677620 -1.927554 -2.380769
H 4.179207 -3.051413 -1.360192
H 1.246447 -3.646931 -3.059300
H 1.414411 -5.163773 -1.528536
H -1.067498 -3.011415 -2.276954
H -0.201349 -1.717614 -3.810590
H -3.338157 -0.969635 -0.919325
H -3.355139 -1.823748 0.650008
H -7.127837 -0.350976 1.698779
H -9.482836 0.215411 2.163127
H -10.972559 0.956975 0.335607
H -10.106624 1.144899 -1.975255
H -7.770900 0.571317 -2.478822
