22

C 2.521238 -1.701321 0.664704
O 2.459957 -0.363143 0.181735
C 1.275238 0.303677 -0.169251
C 0.009887 -0.309695 -0.071507
C -1.160435 0.388266 -0.432220
C -2.503407 -0.246646 -0.334217
C -2.683199 -1.654369 0.150505
O -3.530009 0.407030 -0.665408
C -1.042544 1.711917 -0.892883
C 0.208873 2.321989 -0.990781
C 1.366264 1.622982 -0.630932
O 2.615214 2.234202 -0.729477
H 3.580006 -1.967536 0.860819
H 1.950800 -1.791632 1.613225
H 2.114135 -2.400903 -0.095625
H -0.059947 -1.326735 0.284430
H -3.758496 -1.933526 0.147261
H -2.137476 -2.355250 -0.515335
H -2.300307 -1.747834 1.188315
H -1.919060 2.279694 -1.179097
H 0.278189 3.341771 -1.347746
H 2.715078 3.187063 -1.059664
