50

C -1.999158 -2.769397 2.175010
C -1.860886 -1.319075 1.810183
C -1.687495 -0.875283 0.543365
C -1.684370 -1.852345 -0.626586
N -1.062446 -1.208694 -1.787752
C -0.042215 -1.935733 -2.600868
C 1.434093 -1.749110 -2.071221
C 1.427901 -0.954436 -0.766897
C 0.983734 0.447299 -0.947864
O 1.020217 1.075479 -2.041182
N 0.952192 1.111007 0.288875
C 2.077791 0.454735 0.905737
C 2.714571 0.842419 2.083914
C 3.788148 0.063500 2.549988
C 4.187690 -1.098180 1.855506
C 3.522143 -1.493454 0.682868
C 2.510456 -0.670356 0.195210
C -0.345412 1.350807 0.959542
C -0.571368 2.833073 1.063073
O -1.241828 3.295385 2.026789
O -0.073161 3.685925 0.072567
C -0.280422 5.092450 0.097107
C -1.616156 0.639970 0.297250
C -1.947946 1.057264 -1.185686
C -1.754382 -0.021487 -2.307541
C -3.041116 -0.410121 -2.912682
N -4.051104 -0.715739 -3.387698
H -2.195520 -2.862506 3.263602
H -1.059646 -3.312696 1.941658
H -2.847766 -3.225275 1.622851
H -1.923356 -0.601251 2.623481
H -1.124033 -2.775792 -0.367099
H -2.726709 -2.155364 -0.862033
H -0.289087 -3.019501 -2.616463
H -0.088477 -1.596816 -3.658288
H 1.888099 -2.745906 -1.883716
H 2.057753 -1.232433 -2.832716
H 0.739895 -1.505808 -0.104990
H 2.389477 1.720345 2.626787
H 4.299828 0.346676 3.460572
H 4.992189 -1.707217 2.246689
H 3.771222 -2.422655 0.187423
H -0.260570 0.976724 2.003450
H 0.165046 5.526286 1.017303
H 0.207932 5.548026 -0.788532
H -1.367659 5.316642 0.063872
H -2.479343 1.040506 0.879231
H -1.354822 1.954578 -1.456713
H -2.999183 1.425475 -1.212165
H -1.154741 0.432059 -3.125205
