48

O -1.816809 3.096382 -2.252095
C -0.791745 2.815985 -1.573994
O 0.462748 3.184202 -2.051973
C -0.942450 2.168087 -0.218039
C -2.127164 1.133755 -0.144314
C -1.781030 -0.111487 0.774911
C -3.019720 -1.073610 0.912235
C -2.710706 -2.574132 0.601966
C -1.844320 -2.785911 -0.679199
N -1.159578 -1.537769 -1.021995
C -0.131561 -1.529120 -2.042639
C 0.512831 -0.157345 -1.862589
C 0.532398 0.032616 -0.318099
C 1.952868 -0.198458 0.111051
C 2.692249 -1.380353 0.186729
C 4.062459 -1.289535 0.482169
C 4.669252 -0.031599 0.675017
C 3.911503 1.147277 0.572837
C 2.555447 1.037741 0.268845
N 1.612399 2.108481 0.223742
C 0.314425 1.447109 0.341533
C 0.018678 1.254675 1.885350
C -1.282551 0.443288 2.122080
C -0.594887 -0.899440 0.155484
H 0.563953 3.639929 -2.950835
H -1.187969 3.012260 0.465146
H -2.388680 0.771681 -1.162762
H -3.030398 1.648502 0.251432
H -3.822082 -0.755822 0.211074
H -3.456138 -1.001440 1.931998
H -2.166464 -3.000304 1.472945
H -3.663510 -3.138231 0.506994
H -2.503480 -3.074373 -1.525621
H -1.108501 -3.603570 -0.511235
H -0.584707 -1.630134 -3.051948
H 0.607987 -2.342636 -1.870279
H 1.515116 -0.123690 -2.346359
H -0.132971 0.573290 -2.374996
H 2.226298 -2.341656 0.016888
H 4.657309 -2.190632 0.554985
H 5.724873 0.026516 0.906210
H 4.367745 2.115052 0.734941
H 1.815286 3.082114 0.542844
H 0.859956 0.727834 2.386793
H -0.064272 2.245105 2.385045
H -1.086580 -0.388937 2.834155
H -2.060840 1.097617 2.573337
H -0.176668 -1.649314 0.870236
