55

C -3.625509 -3.247644 -0.830845
C -2.971561 -2.245621 -1.420218
C -1.650319 -1.742092 -0.881483
C -0.943997 -0.838012 -1.903160
N 0.401592 -0.522508 -1.418661
C 1.581636 -0.918107 -2.220682
C 2.832284 -0.060541 -1.916801
C 2.908431 0.226797 -0.449488
C 3.880614 0.727433 0.303559
C 5.215131 1.011951 -0.019772
O 5.697001 0.744230 -1.311170
C 7.025303 1.006618 -1.745930
C 6.031161 1.562328 0.998227
C 5.507590 1.814223 2.282362
C 4.164681 1.532812 2.575257
C 3.364920 0.991756 1.569691
N 2.101075 0.719336 1.693639
C 1.750717 0.225811 0.403294
C 0.541959 -0.123714 -0.036066
C -0.684077 0.017024 0.827572
C -1.746016 -1.083130 0.544730
C -3.142837 -0.576300 0.920780
C -3.714169 -1.016718 2.060536
O -4.955838 -0.557290 2.504394
C -5.103191 0.718415 3.120818
C -3.863727 0.381531 0.042691
O -3.217594 1.230314 -0.634371
O -5.264498 0.333634 -0.042276
C -6.012989 1.256069 -0.820747
H -3.222161 -3.734685 0.050184
H -4.569418 -3.594241 -1.235247
H -3.404082 -1.786840 -2.304262
H -0.994867 -2.638200 -0.788767
H -1.509144 0.102472 -2.056436
H -0.890672 -1.360390 -2.884282
H 1.354633 -0.833985 -3.305442
H 1.813526 -1.982616 -2.002983
H 3.739131 -0.607247 -2.252860
H 2.765455 0.904398 -2.466520
H 7.234213 2.095360 -1.702070
H 7.140741 0.663085 -2.796736
H 7.751163 0.451347 -1.115674
H 7.070575 1.797535 0.811047
H 6.147207 2.234112 3.048203
H 3.759563 1.741011 3.558025
H -1.094978 1.029374 0.642192
H -0.412447 -0.021980 1.906109
H -1.487546 -1.915571 1.240185
H -3.212821 -1.756740 2.672559
H -6.161750 0.849472 3.431217
H -4.834442 1.530597 2.406317
H -4.448131 0.777227 4.023023
H -7.094327 0.995218 -0.756408
H -5.689874 1.202677 -1.886102
H -5.857322 2.290006 -0.431153
