45

C 4.122532 2.900750 1.521128
C 3.039228 1.865832 1.448048
C 3.070440 0.801474 0.620327
C 4.216409 0.566283 -0.339714
O 4.193001 1.525040 -1.360386
C 1.907093 -0.126776 0.593416
C 0.657290 0.394414 0.244043
C -0.458167 -0.442480 0.154533
N -0.336479 -1.796412 0.371475
C 0.881898 -2.330191 0.729877
O 0.987447 -3.572492 0.936537
C 2.023072 -1.507767 0.881837
C 3.345952 -2.117846 1.329545
O 3.166781 -2.976802 2.423599
C -1.545403 -2.671004 0.361710
C -2.626793 -2.224448 -0.647769
C -2.801621 -0.747802 -0.571094
C -1.771471 0.097584 -0.240248
N -2.126217 1.394459 -0.402547
C -3.391619 1.354135 -0.863028
C -4.192414 2.435813 -1.226523
C -5.477569 2.162946 -1.731459
C -5.925906 0.828359 -1.870569
C -5.097416 -0.246027 -1.499432
C -3.836027 0.056860 -0.990784
H 5.084784 2.431316 1.810035
H 4.229496 3.413847 0.542542
H 3.856520 3.664292 2.285559
H 2.189432 1.998220 2.109198
H 5.183289 0.619382 0.205203
H 4.137047 -0.447527 -0.790722
H 4.923020 1.275771 -1.984717
H 0.569268 1.448812 0.012337
H 4.095613 -1.346707 1.609907
H 3.770914 -2.701180 0.487328
H 2.956081 -2.399967 3.204479
H -1.987962 -2.675638 1.381367
H -1.279899 -3.720055 0.108655
H -3.587254 -2.734636 -0.421002
H -2.310060 -2.493190 -1.678379
H -1.548388 2.248770 -0.237171
H -3.836681 3.454897 -1.127361
H -6.126337 2.979897 -2.018573
H -6.913028 0.631604 -2.267210
H -5.429898 -1.271808 -1.608192
