66

C -6.114924 4.784657 -0.894750
C -5.610192 3.572739 -0.155166
C -5.715229 3.559265 1.351300
C -5.139953 2.510517 -0.849131
C -4.610110 1.250204 -0.203668
O -4.565464 0.203808 -1.171279
C -3.289410 -0.288621 -1.331932
O -3.007910 -1.213786 -2.137957
C -2.355361 0.412936 -0.474503
C -1.025656 0.254845 -0.385881
C -0.254479 -0.762615 -1.170570
O -0.597220 -2.054931 -0.712967
C 0.252021 -3.029258 -1.294109
O 1.516528 -3.073110 -0.640027
C 1.475626 -3.564745 0.700087
C 0.961344 -2.515400 1.711528
O 1.498625 -1.226595 1.422776
C 2.846829 -0.897442 1.588041
O 3.616054 -1.656651 2.238643
C 3.350701 0.342992 0.976916
C 4.653322 0.665953 0.989508
C 5.206610 1.869304 0.321655
C 4.422407 3.006439 0.036118
C 4.991219 4.118078 -0.594378
C 6.344982 4.115884 -0.941123
O 6.895966 5.230538 -1.569770
C 7.134289 2.996193 -0.649543
C 6.570778 1.884355 -0.016573
C 0.763446 -4.938066 0.838166
O 1.588153 -5.985733 0.382527
C -0.595167 -4.953253 0.114341
O -1.108510 -6.260122 0.061203
C -0.435539 -4.407328 -1.310987
O -1.670157 -4.343694 -1.980021
C -3.142788 1.429480 0.298565
O -3.040668 1.207700 1.684028
H -5.738197 5.708697 -0.403404
H -5.774600 4.798954 -1.953483
H -7.225554 4.789952 -0.875307
H -6.185617 4.495846 1.724942
H -6.350197 2.709538 1.684070
H -4.702486 3.473924 1.802286
H -5.120650 2.556371 -1.936245
H -5.284921 0.922986 0.616418
H -0.468751 0.901472 0.283655
H 0.831079 -0.560354 -1.027037
H -0.488001 -0.646072 -2.251796
H 0.444477 -2.790163 -2.366922
H 2.534671 -3.747472 0.987287
H -0.144725 -2.451755 1.683249
H 1.240079 -2.812986 2.746081
H 2.632338 0.960562 0.454678
H 5.358633 -0.013523 1.455773
H 3.379373 3.056619 0.314948
H 4.379525 4.985778 -0.808411
H 7.874714 5.262289 -1.831924
H 8.185280 2.987943 -0.910519
H 7.200672 1.029379 0.199540
H 0.573504 -5.127951 1.917393
H 1.938920 -5.739107 -0.511049
H -1.306845 -4.299404 0.671134
H -1.419569 -6.483410 0.977701
H 0.210584 -5.103162 -1.887786
H -2.302104 -3.828122 -1.416871
H -2.751604 2.444869 0.067474
H -3.330188 0.273767 1.865259
