54

C 4.395335 0.514589 0.520036
C 3.755865 -0.676585 -0.134219
C 2.592070 -0.643711 -0.822588
C 2.205983 -1.869716 -1.658552
N 0.745552 -1.916444 -1.983669
C 0.027709 -2.611604 -0.907626
C 0.041430 -1.760397 0.359598
C -0.459368 -0.306956 0.073432
C -1.771071 -0.160547 0.813552
C -2.014596 0.071859 2.169192
C -3.340414 0.025128 2.630740
O -3.605557 0.270210 3.975915
C -4.391015 -0.274464 1.735964
C -4.121887 -0.534018 0.382634
C -2.794488 -0.487101 -0.053521
N -2.316717 -0.659480 -1.390860
C -3.182104 -0.633753 -2.567293
C -0.974566 -0.065847 -1.352487
O -1.126707 1.351975 -1.488221
C -0.315834 1.952280 -0.490198
C 0.585589 0.841234 0.066329
C 1.117915 1.197795 1.432719
O 1.355040 0.292773 2.279227
O 1.407789 2.533071 1.732877
C 1.903347 2.943604 3.001097
C 1.765083 0.623977 -1.013886
C 1.193203 0.498521 -2.455600
C 0.107963 -0.603828 -2.381363
H 3.757901 0.912427 1.329481
H 4.597531 1.306610 -0.230411
H 5.364922 0.211781 0.967704
H 4.316409 -1.607104 -0.098086
H 2.534115 -2.803238 -1.147311
H 2.782284 -1.848410 -2.607839
H 0.485268 -3.604269 -0.701050
H -1.013250 -2.830405 -1.226426
H -0.596751 -2.285782 1.106129
H 1.043901 -1.765453 0.827626
H -1.203898 0.273418 2.854611
H -4.549771 0.242430 4.342591
H -5.413067 -0.308100 2.090883
H -4.931062 -0.758686 -0.298515
H -4.040476 -1.321782 -2.423781
H -2.624817 -0.973384 -3.462798
H -3.556965 0.397402 -2.736599
H 0.271072 2.791577 -0.922863
H -0.973463 2.382277 0.298719
H 2.048177 4.043282 2.996932
H 2.878154 2.453204 3.206750
H 1.174913 2.679019 3.796631
H 2.426156 1.516585 -1.012993
H 0.797463 1.461825 -2.840989
H 1.983215 0.235019 -3.193635
H -0.343507 -0.712810 -3.387989
