112

C 3.380835 1.189409 -3.166637
C 4.735617 0.838372 -2.559429
C 5.346763 -0.451124 -3.223609
C 6.672075 -0.688720 -2.411662
O 7.319210 -1.876606 -2.781534
O 7.488520 0.442422 -2.650605
C 6.788646 1.485719 -1.991368
O 5.676178 1.873844 -2.781323
C 6.207325 0.855935 -0.740773
C 6.610739 1.473557 0.611633
O 8.019049 1.380080 0.805991
C 8.639325 1.830407 1.978572
O 7.940852 2.320460 2.912314
C 10.109829 1.724624 2.132316
C 10.911415 1.309322 1.054274
C 12.297304 1.207684 1.201687
C 12.895241 1.516317 2.423179
C 12.114323 1.940527 3.499382
C 10.727947 2.044062 3.356056
C 6.382760 -0.647013 -0.875001
C 4.894675 -0.814335 -0.528168
C 4.715878 0.649450 -0.998576
O 3.922825 1.551095 -0.239501
C 2.630977 1.059951 0.085562
O 1.699577 2.004028 -0.403576
C 0.343512 1.638409 -0.165632
C -0.221055 0.686071 -1.258282
O -0.412711 -0.643031 -0.815745
C -1.118682 -0.621200 0.404109
C -1.632920 -2.013950 0.709590
C -0.796103 -2.946226 1.352625
C -1.268904 -4.216521 1.680004
C -2.576847 -4.579327 1.364047
C -3.408948 -3.683944 0.692385
C -2.939003 -2.404604 0.323140
O -3.728769 -1.493408 -0.404254
C -5.020660 -1.731013 -0.976332
O -5.930048 -2.148615 0.033384
C -7.252700 -2.372792 -0.452577
C -8.011450 -1.056868 -0.730078
O -8.095627 -0.301016 0.465550
C -7.459313 0.960568 0.332691
O -8.133014 1.789208 -0.606593
C -9.493098 2.018837 -0.241494
C -9.665968 2.489543 1.226093
O -10.525186 3.600225 1.295585
C -8.298253 2.859155 1.825780
O -8.416920 3.295642 3.153301
C -7.343177 1.651232 1.725975
O -6.028220 2.089685 1.955524
C -7.297390 -3.368160 -1.638043
O -6.965306 -4.659449 -1.186085
C -6.314944 -2.947331 -2.747614
O -6.255373 -3.936427 -3.746147
C -4.921361 -2.738387 -2.146057
O -4.060610 -2.234190 -3.137039
O -0.235832 -0.206412 1.420779
C 0.048297 1.177437 1.297084
C 1.228214 1.523350 2.213452
O 1.303278 2.918116 2.344784
C 2.555000 0.968689 1.637984
O 2.795528 -0.344333 2.084149
H 2.664664 0.356386 -2.996241
H 2.983809 2.121795 -2.716196
H 3.489595 1.351631 -4.263569
H 5.583125 -0.241265 -4.295488
H 4.659249 -1.323671 -3.199098
H 7.597240 -1.766469 -3.727742
H 7.456835 2.349196 -1.792699
H 6.083685 0.949046 1.441924
H 6.306981 2.543275 0.625145
H 10.469292 1.065371 0.097512
H 12.909683 0.883847 0.369831
H 13.966078 1.432242 2.538539
H 12.578714 2.180453 4.447944
H 10.137737 2.366556 4.202253
H 7.133026 -1.107750 -0.194440
H 4.339967 -1.592696 -1.085031
H 4.764218 -0.935032 0.568518
H 2.413347 0.066576 -0.383697
H -0.227694 2.590165 -0.293051
H 0.466600 0.672723 -2.128808
H -1.185522 1.085989 -1.641806
H -2.004970 0.063906 0.360640
H 0.216130 -2.677866 1.626287
H -0.620094 -4.914751 2.193445
H -2.937115 -5.563045 1.628770
H -4.414099 -4.004220 0.473882
H -5.350722 -0.756903 -1.392554
H -7.811361 -2.858504 0.381614
H -9.050922 -1.315582 -1.027453
H -7.573578 -0.510585 -1.598335
H -6.423330 0.808315 -0.047229
H -9.884470 2.801159 -0.929028
H -10.100759 1.102248 -0.428085
H -10.096110 1.651457 1.821512
H -11.440960 3.262416 1.096888
H -7.870156 3.692586 1.225883
H -8.865431 2.583947 3.678344
H -7.625564 0.913756 2.516113
H -5.476667 1.278872 2.128998
H -8.325425 -3.386703 -2.073565
H -7.772273 -5.020263 -0.729766
H -6.655625 -1.985934 -3.198459
H -7.063808 -3.819038 -4.308149
H -4.546641 -3.721450 -1.789104
H -3.143596 -2.485256 -2.871777
H -0.836075 1.736433 1.679730
H 1.047985 1.083885 3.222565
H 1.957820 3.106517 3.067843
H 3.378171 1.584463 2.062063
H 2.125691 -0.936663 1.659883
