75

C -2.535953 0.212357 -2.021796
C -2.006857 0.146931 -0.789814
C -2.838574 0.185858 0.451710
O -3.650675 1.357548 0.450399
C -5.034459 1.337172 0.272980
O -5.717047 0.300560 0.521592
C -5.692600 2.554091 -0.194094
C -5.125505 3.285070 -1.250044
C -5.700043 4.495207 -1.645528
C -6.825962 4.988358 -0.988563
O -7.358500 6.220967 -1.368042
C -7.409107 4.244757 0.044289
C -6.850241 3.022697 0.440609
C -1.825574 0.240484 1.597153
C -0.427361 0.463854 0.976206
C 0.045589 1.934858 1.095348
C 0.177062 2.468781 2.539696
O 0.608612 1.479812 3.436334
C -0.541595 0.047677 -0.512360
C -0.054647 -1.382590 -0.867818
O 1.018140 -1.825626 -0.051999
C 0.572101 -2.696633 0.979701
O 1.327547 -2.490374 2.164343
C 2.723205 -2.739794 2.030753
C 3.517171 -1.426705 1.901402
O 3.422888 -0.882264 0.588613
C 4.219027 0.183525 0.148317
O 4.835130 0.907458 0.990247
C 4.415185 0.400375 -1.305487
C 5.463334 1.210472 -1.786078
C 5.740795 1.264525 -3.153243
C 4.949775 0.540172 -4.056326
O 5.269294 0.525418 -5.411603
C 3.869357 -0.212639 -3.591260
C 3.620047 -0.304387 -2.225091
C 3.101189 -3.779898 0.930435
O 4.348894 -4.375515 1.193678
C 1.984966 -4.836353 0.830636
O 2.302043 -5.820819 -0.123203
C 0.615127 -4.176843 0.518003
O -0.394942 -4.905854 1.171742
H -3.607731 0.316681 -2.161700
H -1.893673 0.191883 -2.901942
H -3.456976 -0.739525 0.524624
H -4.233898 2.915739 -1.749862
H -5.247930 5.065297 -2.461436
H -8.097367 6.649773 -0.814964
H -8.270890 4.625963 0.584840
H -7.303153 2.463810 1.242889
H -2.099889 1.049340 2.310735
H -1.849626 -0.716856 2.176862
H 0.304777 -0.155764 1.527184
H -0.645511 2.597212 0.518065
H 1.038600 2.014924 0.613731
H 0.892002 3.318563 2.549817
H -0.815028 2.845690 2.899345
H 1.499041 1.164754 3.105661
H 0.018434 0.773407 -1.155017
H -0.887499 -2.120623 -0.951597
H 0.343081 -1.332816 -1.894091
H -0.483503 -2.464083 1.259668
H 3.031316 -3.176460 3.007995
H 3.143150 -0.680106 2.634320
H 4.579877 -1.639678 2.137145
H 6.112028 1.750607 -1.101975
H 6.576602 1.848872 -3.510180
H 6.102897 0.980883 -5.768095
H 3.266561 -0.773435 -4.294756
H 2.821595 -0.948205 -1.890012
H 3.177718 -3.274265 -0.057143
H 4.252930 -4.926580 2.017611
H 1.912955 -5.334537 1.829470
H 2.424907 -5.359628 -0.996651
H 0.439151 -4.202887 -0.585183
H -1.201785 -4.890636 0.595888
