52

C -2.848141 3.570782 -0.085935
O -2.667735 2.725203 1.021855
N -2.318153 1.508818 0.525460
C -0.994871 1.005907 0.397784
O 0.013969 1.753932 0.475248
C -0.962097 -0.483266 0.075932
C -0.391493 -0.740652 -1.343371
C 1.146113 -0.894651 -1.468509
C 1.813730 -1.787701 -0.390451
C 0.911906 -3.001027 -0.035191
O -0.206398 -2.720784 0.806128
C -0.325645 -1.361773 1.208306
C 0.988689 -0.838000 1.829056
C 2.221322 -1.025630 0.900971
O 3.212454 -1.786562 1.563803
C 2.850317 0.333182 0.601439
C 3.657425 1.005221 1.666398
C 4.566679 2.163337 1.376301
O 3.568091 0.606257 2.859282
C 2.630196 0.963547 -0.563715
N 1.810385 0.408037 -1.600503
C 1.656320 1.184754 -2.833145
C -2.464652 -0.740004 0.046564
C -3.136578 -1.948184 -0.182612
C -4.539814 -1.964573 -0.125195
C -5.254441 -0.786755 0.164406
C -4.571172 0.416462 0.396303
C -3.178122 0.408544 0.327268
H -1.902843 3.674207 -0.663628
H -3.661125 3.193709 -0.745331
H -3.140253 4.577360 0.277100
H -0.841308 -1.676515 -1.742181
H -0.748130 0.052939 -2.036261
H 1.308104 -1.434398 -2.430464
H 2.748176 -2.187928 -0.847646
H 1.524649 -3.784010 0.457097
H 0.542429 -3.473523 -0.970190
H -1.045918 -1.352271 2.058180
H 0.868167 0.210674 2.169279
H 1.147643 -1.401450 2.775219
H 2.812131 -2.631150 1.895188
H 5.182394 1.949883 0.477341
H 5.252791 2.340622 2.231778
H 3.964347 3.080785 1.210221
H 3.058224 1.942904 -0.736168
H 1.157796 2.150797 -2.605931
H 2.653940 1.382956 -3.279089
H 1.044301 0.639376 -3.582781
H -2.590620 -2.856830 -0.398082
H -5.074441 -2.888985 -0.300813
H -6.335490 -0.809449 0.209295
H -5.113250 1.325875 0.620286
