63

C -1.799757 3.644103 -0.539475
C -0.537611 2.785251 -0.434726
C 0.754719 3.682641 -0.355751
C 1.915962 2.643565 -0.162368
O 3.153862 3.261064 0.061895
O 1.936927 1.848470 -1.332514
C 0.719425 1.126065 -1.248983
O -0.355932 1.992302 -1.593397
C 0.544621 0.789425 0.226570
C 0.516059 -0.699443 0.630267
O 1.836815 -1.235252 0.703071
C 2.544670 -1.734950 -0.396890
O 1.951494 -1.955513 -1.488476
C 3.990252 -2.018138 -0.267408
C 4.721053 -2.541517 -1.350403
C 6.090012 -2.796840 -1.222894
C 6.746649 -2.532049 -0.017160
O 8.111838 -2.786931 0.094148
C 6.026793 -2.011548 1.066147
C 4.657635 -1.755913 0.942553
C 1.562051 1.643706 0.980791
C 0.426895 2.147118 1.880263
C -0.533868 1.741142 0.752431
O -1.760131 1.218307 1.262647
C -2.547356 0.493661 0.331116
O -2.446213 -0.890993 0.626136
C -3.136116 -1.672714 -0.339468
C -2.851073 -3.158547 -0.063101
O -1.480106 -3.430068 -0.164429
C -4.658254 -1.403586 -0.273904
O -5.303999 -2.102456 -1.308059
C -4.929517 0.108321 -0.423878
O -6.285836 0.414886 -0.212201
C -4.018942 0.939280 0.502904
O -4.427863 0.857465 1.848733
H -1.609845 4.537739 -1.170535
H -2.613389 3.076684 -1.028535
H -2.122701 3.982104 0.467484
H 0.714227 4.443321 0.450973
H 0.898741 4.231791 -1.312700
H 3.374172 3.765011 -0.764113
H 0.731427 0.240613 -1.915082
H 0.053516 -0.802200 1.634101
H -0.090327 -1.277818 -0.093022
H 4.236641 -2.752273 -2.296061
H 6.642219 -3.198001 -2.063171
H 8.617722 -2.598158 0.950266
H 6.527204 -1.803975 2.003640
H 4.124864 -1.348747 1.793439
H 2.407183 1.111853 1.469017
H 0.443336 3.214627 2.175473
H 0.311426 1.494700 2.775327
H -2.239762 0.686788 -0.720849
H -2.762446 -1.445178 -1.365570
H -3.414978 -3.805523 -0.772899
H -3.184539 -3.415407 0.965175
H -1.262141 -3.437609 -1.132054
H -5.037721 -1.757404 0.713876
H -6.264270 -2.157658 -1.062587
H -4.685708 0.393429 -1.471911
H -6.538608 0.079472 0.686980
H -4.115715 2.001153 0.202450
H -4.275682 -0.069647 2.166705
