47

C 0.809958 4.902383 0.420992
O 0.418468 3.535166 0.437838
C 1.085602 2.549185 -0.296696
O 2.099779 2.852884 -0.982983
C 0.636004 1.139806 -0.225871
C -0.625832 0.808814 0.125149
N -1.749589 1.669435 -0.089808
C -2.849185 0.795808 -0.281537
C -4.140587 1.172194 -0.650194
C -5.106346 0.166865 -0.818998
C -4.767345 -1.185631 -0.618966
C -3.458549 -1.542553 -0.255800
C -2.505111 -0.529787 -0.113424
C -1.070502 -0.638434 0.322970
C -0.978062 -1.039574 1.798719
C -0.275491 -2.383585 1.802853
N 0.493607 -2.502397 0.556332
C 1.933190 -2.165815 0.738660
C 2.230854 -0.645069 0.634460
C 3.725019 -0.393848 0.681337
C 4.646684 -0.876120 -0.403109
O 4.200711 0.214917 1.627959
C 1.580132 0.014447 -0.626907
C 0.763868 -1.011369 -1.433192
C -0.216875 -1.682727 -0.454170
H 0.129145 5.484246 1.075468
H 0.745432 5.303266 -0.612723
H 1.848857 5.005078 0.799917
H -1.732184 2.665314 -0.401252
H -4.393892 2.213648 -0.799883
H -6.116895 0.433026 -1.100331
H -5.520184 -1.953396 -0.741165
H -3.197672 -2.578839 -0.085011
H -1.972014 -1.123097 2.293085
H -0.376246 -0.311014 2.385123
H -1.039896 -3.191035 1.817183
H 0.345537 -2.503776 2.717928
H 2.317805 -2.557845 1.706295
H 2.508329 -2.714115 -0.037090
H 1.800951 -0.185120 1.551691
H 5.191535 -0.012011 -0.837518
H 5.380048 -1.591384 0.024202
H 4.086571 -1.382692 -1.216131
H 2.357277 0.411536 -1.315416
H 1.428012 -1.766979 -1.906317
H 0.203337 -0.509474 -2.253748
H -0.874251 -2.360334 -1.041310
