50

C -1.058866 4.014017 0.920349
O -0.795721 2.691242 0.470132
C -0.538685 1.632076 1.347961
O -0.472854 1.847493 2.590571
C -0.247653 0.247638 0.778571
C -0.495786 -0.918302 1.820298
C -1.898636 -1.558713 1.580224
C -2.878812 -0.362555 1.526697
C -2.766835 0.163891 0.065205
C -3.668595 -0.868420 -0.695249
C -3.696411 -0.650254 -2.213639
O -3.281239 -2.221640 -0.367087
C -1.943010 -2.253539 0.141259
N -1.132156 -1.458116 -0.810776
C 0.157270 -2.066394 -1.188614
C 1.109290 -1.072312 -1.848206
C 1.793839 -0.260836 -0.794218
C 1.221609 0.277918 0.365054
N 2.195261 0.814925 1.146094
C 3.350641 0.654300 0.482077
C 4.621666 1.049812 0.897145
C 5.708342 0.765149 0.051271
C 5.502920 0.095092 -1.174329
C 4.209333 -0.296386 -1.564493
C 3.148627 0.005334 -0.706780
C -1.241216 -0.024663 -0.417059
H -0.187471 4.402256 1.488983
H -1.963044 4.022304 1.565222
H -1.236703 4.668745 0.042844
H 0.275318 -1.711794 1.731250
H -0.424012 -0.561225 2.869395
H -2.167214 -2.269976 2.390533
H -3.907857 -0.698428 1.789128
H -2.644120 0.422258 2.274939
H -3.134694 1.207531 -0.036303
H -4.718977 -0.726358 -0.354696
H -4.002975 0.392982 -2.439837
H -2.710079 -0.840859 -2.682119
H -4.434800 -1.340645 -2.673283
H -1.595956 -3.308288 0.204516
H -0.054700 -2.872762 -1.923332
H 0.651123 -2.557462 -0.322323
H 0.575450 -0.413476 -2.564537
H 1.863419 -1.647488 -2.425238
H 2.081623 1.258917 2.084453
H 4.769217 1.558372 1.841101
H 6.708112 1.059524 0.342758
H 6.346381 -0.120463 -1.817220
H 4.051858 -0.809706 -2.503399
H -1.042224 0.639284 -1.285296
