78

C 10.053845 3.373670 -0.458775
O 9.495086 2.753903 0.695118
C 8.160635 2.333498 0.800391
C 7.741316 1.741141 1.995949
C 6.419327 1.313749 2.152975
C 5.488785 1.474458 1.111187
C 4.087580 1.032108 1.273335
O 3.720536 0.474539 2.344834
O 3.167469 1.255328 0.240878
C 1.828655 0.761845 0.237396
C 1.748594 -0.596681 -0.495022
C 2.339937 -1.811701 0.197366
O 3.330196 -2.309661 -0.687946
C 2.753881 -2.096984 -1.962156
O 3.684117 -2.305515 -2.989162
C 1.530650 -3.079713 -2.053398
C 0.568253 -2.578423 -0.914711
C -0.732983 -3.380177 -0.891329
O 1.283280 -2.753350 0.293152
C 0.386916 -1.020341 -1.046457
O -0.691387 -0.412561 -0.349445
C -1.885934 -0.364244 -1.115217
O -2.872530 -1.112638 -0.432637
C -3.989508 -1.355006 -1.273105
C -5.026316 -2.172267 -0.483261
O -5.299044 -1.564898 0.779658
C -6.423043 -0.774187 1.050905
O -7.375501 -0.715057 0.223951
C -6.483449 0.001172 2.309708
C -7.592285 0.820409 2.597481
C -7.625970 1.575791 3.773664
C -6.558412 1.520164 4.674528
C -5.453908 0.710094 4.397698
C -5.414396 -0.045280 3.221996
C -4.594097 -0.035238 -1.859836
O -4.565946 -0.050490 -3.266403
C -3.898852 1.242352 -1.319293
O -4.455864 1.602785 -0.079168
C -2.351359 1.108787 -1.207735
O -1.706061 1.776061 -2.263081
C 0.818355 -0.445622 -2.413021
C 2.264663 -0.613265 -1.926491
C 5.910617 2.064056 -0.092436
C 7.235463 2.489023 -0.248816
H 9.983762 2.690245 -1.330536
H 9.525373 4.324707 -0.676881
H 11.122255 3.597678 -0.269798
H 8.444611 1.614697 2.810304
H 6.126907 0.861468 3.091934
H 1.429686 0.671906 1.270292
H 1.196019 1.505376 -0.292340
H 2.767778 -1.602253 1.197893
H 4.061365 -3.213882 -2.850366
H 1.054468 -3.083810 -3.055147
H 1.866516 -4.118881 -1.841733
H -1.334523 -3.110693 0.000492
H -0.508626 -4.466138 -0.834443
H -1.320262 -3.189262 -1.813215
H -1.746611 -0.769636 -2.148110
H -3.671582 -2.018996 -2.110775
H -5.954592 -2.325489 -1.077507
H -4.597281 -3.178794 -0.289139
H -8.428660 0.880729 1.911805
H -8.478890 2.205887 3.987626
H -6.585327 2.107231 5.583327
H -4.626747 0.670376 5.094582
H -4.545075 -0.660228 3.025466
H -5.666672 0.039855 -1.585116
H -3.629726 -0.205141 -3.555191
H -4.132963 2.077395 -2.016199
H -4.156309 0.936040 0.593028
H -2.037434 1.624731 -0.272713
H -2.016934 1.375322 -3.113754
H 0.567093 0.631206 -2.519999
H 0.523543 -1.019572 -3.313602
H 2.998795 0.177802 -2.195578
H 5.219652 2.198520 -0.916456
H 7.529076 2.939975 -1.187138
