53

C 1.570867 4.705782 0.768097
O 1.375490 3.443663 0.142514
C 0.839823 2.342027 0.817282
O 0.512285 2.443364 2.031912
C 0.707433 1.041952 0.118572
C -0.312557 0.200165 0.401912
N -1.536851 0.642114 1.000980
C -2.542758 -0.196409 0.458041
C -3.920529 -0.054781 0.645116
O -4.400513 0.983052 1.456989
C -5.779303 1.222687 1.717216
C -4.771872 -0.979785 -0.001790
C -4.233247 -2.004350 -0.803189
C -2.845862 -2.116267 -0.976174
C -2.016790 -1.181422 -0.350921
C -0.513339 -1.127346 -0.320329
C 0.049807 -2.287128 0.506337
C 1.058668 -2.989100 -0.383125
N 1.294866 -2.165243 -1.576490
C 2.656375 -1.579562 -1.615179
C 2.809396 -0.221210 -0.852246
C 3.256743 -0.378787 0.641624
C 3.983222 0.874822 1.158572
O 4.096491 -1.492383 0.824083
C 1.584899 0.743937 -1.099222
C 0.660256 0.179305 -2.190969
C 0.179159 -1.203295 -1.705350
H 2.004074 5.413872 0.032360
H 0.599153 5.107308 1.125845
H 2.272184 4.601078 1.622926
H -1.723728 1.564342 1.452153
H -6.315077 1.437045 0.768421
H -5.874473 2.102466 2.385990
H -6.231272 0.342138 2.220761
H -5.845722 -0.920004 0.110569
H -4.893311 -2.714302 -1.284432
H -2.429423 -2.915550 -1.575167
H 0.545308 -1.935531 1.437039
H -0.736638 -3.011492 0.817446
H 1.987173 -3.210328 0.188749
H 0.639345 -3.963760 -0.714301
H 3.417521 -2.329933 -1.316545
H 2.903313 -1.397679 -2.684119
H 3.676864 0.260625 -1.360034
H 2.370040 -0.543465 1.281754
H 3.379541 1.787521 1.011779
H 4.193799 0.764595 2.243399
H 4.947266 1.014875 0.624653
H 4.912058 -1.347597 0.275465
H 1.986109 1.702783 -1.493650
H 1.190493 0.097325 -3.164509
H -0.212116 0.851672 -2.354273
H -0.524642 -1.603807 -2.466544
