69

C -0.076776 1.791495 -1.233862
C 0.392649 1.649293 0.013612
C -0.119567 0.646734 1.037990
C -1.258215 -0.301917 0.606528
O -2.370860 0.467120 0.188481
C -3.319224 -0.329182 -0.509008
O -4.131570 -1.079529 0.385058
C -4.872249 -0.240405 1.261710
C -5.614622 -1.125936 2.271124
O -6.483151 -2.004477 1.608060
C -5.854285 0.660587 0.473488
O -6.514672 1.539846 1.350099
C -5.063994 1.484929 -0.557036
O -5.913427 2.272013 -1.355932
C -4.180012 0.565856 -1.418861
O -4.975480 -0.250634 -2.244753
O -1.642545 -1.126883 1.718254
C -0.825677 -1.372301 2.837301
C 0.428770 -0.888523 2.914067
C 1.270551 -1.172419 4.099837
O 2.445415 -0.720883 4.166639
O 0.775254 -1.938016 5.152140
C 1.018969 -0.179032 1.705727
C 1.722621 -1.274754 0.833749
C 2.139870 -0.949474 -0.621293
N 2.272512 -2.220321 -1.370057
C 2.700510 -1.997398 -2.764913
C 4.129055 -1.425010 -2.835112
C 4.288746 -0.348986 -1.811303
C 3.428330 -0.160074 -0.741329
N 3.837193 0.883906 0.020277
C 4.980631 1.315019 -0.548719
C 5.798084 2.358493 -0.114281
C 6.958540 2.640048 -0.858631
C 7.271992 1.883720 -2.012612
C 6.429700 0.835238 -2.428026
C 5.289878 0.581180 -1.668403
H -0.834177 1.141601 -1.650318
H 0.336150 2.562742 -1.874600
H 1.161679 2.341794 0.341553
H -0.551616 1.289526 1.839751
H -0.870318 -0.949744 -0.211666
H -2.812039 -1.048241 -1.193489
H -4.181674 0.402522 1.855415
H -4.869499 -1.711878 2.851215
H -6.183070 -0.492511 2.988618
H -6.997709 -2.469150 2.316543
H -6.588381 0.017260 -0.070719
H -7.422673 1.170814 1.505887
H -4.392677 2.179572 -0.003562
H -6.610187 1.683322 -1.742727
H -3.495782 1.192513 -2.039575
H -5.114972 0.243965 -3.095216
H -1.242392 -1.954953 3.648896
H 1.340615 -2.115957 5.975165
H 1.775690 0.537750 2.079328
H 2.622768 -1.631664 1.381013
H 1.040806 -2.154212 0.778429
H 1.337775 -0.385173 -1.115771
H 2.977240 -2.835562 -0.898941
H 1.989675 -1.310611 -3.274766
H 2.670923 -2.962586 -3.312703
H 4.866932 -2.229198 -2.630710
H 4.316705 -1.015198 -3.850089
H 3.378801 1.294827 0.858889
H 5.551810 2.930078 0.772853
H 7.612371 3.445796 -0.549038
H 8.165067 2.112254 -2.579518
H 6.659217 0.250978 -3.308227
