53

C -3.551293 -0.479476 -3.221239
O -3.223915 -1.199323 -2.052912
C -1.916473 -0.885191 -1.598857
O -1.556916 -1.800642 -0.573921
C -1.632994 -1.095522 0.646835
C -0.839962 -1.831819 1.741164
C -3.171317 -1.067276 1.042459
C -3.865051 0.091081 0.335933
O -5.080402 0.155003 0.240340
C -2.961512 1.182923 -0.201836
C -1.978414 1.444701 0.943598
C -1.093060 0.355534 0.322638
O 0.293793 0.668574 0.474926
C 1.191985 -0.085864 -0.325195
O 1.763211 -1.117249 0.479440
C 3.164321 -1.041311 0.676302
C 3.588138 -2.126699 1.675670
O 2.882797 -1.995920 2.880875
C 3.608445 0.371322 1.127907
O 3.099661 0.690033 2.402611
C 3.220208 1.439922 0.069018
O 2.682724 2.587143 0.679745
C 2.210849 0.895091 -0.968839
O 2.884888 0.244162 -2.018006
C -1.780373 0.561413 -1.022468
C -1.149156 1.564982 -2.028469
O -0.749577 2.754425 -1.406027
H -4.395331 -0.994120 -3.724174
H -3.900213 0.538894 -2.954523
H -2.715055 -0.427978 -3.952802
H -1.186360 -1.046485 -2.423563
H -0.014918 -2.426526 1.305680
H -1.483148 -2.565059 2.273809
H -0.440704 -1.114406 2.489577
H -3.300547 -0.933816 2.138587
H -3.656172 -2.026379 0.756062
H -3.462004 2.081211 -0.624690
H -2.324292 1.234607 1.981497
H -1.524553 2.456873 0.885605
H 0.680396 -0.588793 -1.165949
H 3.681843 -1.295914 -0.274892
H 3.375279 -3.125084 1.229997
H 4.683252 -2.056588 1.866740
H 3.173709 -2.752140 3.452837
H 4.717755 0.368237 1.212087
H 2.109569 0.658001 2.354057
H 4.141458 1.739433 -0.486228
H 3.434614 3.046733 1.138578
H 1.650874 1.756274 -1.395939
H 3.266852 0.952058 -2.601125
H -0.280120 1.103970 -2.542738
H -1.899830 1.806636 -2.810676
H -0.372963 3.330343 -2.121081
