63

C 2.942142 1.300464 -4.083457
O 2.088923 1.063811 -2.970789
C 2.278663 -0.001939 -2.087818
O 3.227162 -0.812804 -2.268108
N 1.366212 -0.194538 -0.997041
C 1.619422 -0.856443 0.252710
C 0.432306 -1.158341 0.901348
C 0.416109 -1.702857 2.183950
C 1.638462 -1.895066 2.840446
C 2.856158 -1.564456 2.206751
O 4.063188 -1.802550 2.860806
C 2.853947 -1.016212 0.903329
O 4.045318 -0.668546 0.260625
C 4.931664 0.328272 0.752516
C -0.690213 -0.974857 -0.076985
C -0.960463 -2.404773 -0.644960
C -2.234148 -2.834307 0.076089
N -3.008169 -1.612101 0.109005
C -4.215046 -1.512202 0.929257
C -4.730416 -0.039879 0.911120
C -4.176510 0.802293 -0.283739
C -2.629366 0.635036 -0.536991
C -2.339388 0.299429 -2.054881
C -0.809746 0.148217 -2.344461
C -0.062922 0.148992 -0.986464
C -0.278029 1.615963 -0.356513
O 0.270960 2.558449 -1.252522
C 0.420828 1.805375 0.988050
O -0.151443 1.477844 2.065081
O 1.716620 2.330907 1.023478
C 2.412702 2.557610 2.243579
C -1.820895 1.902072 -0.204020
C -2.089501 -0.513359 0.360040
H 2.586661 2.197699 -4.630667
H 2.921063 0.428343 -4.770813
H 3.981195 1.479302 -3.734313
H -0.515195 -1.976725 2.660975
H 1.643044 -2.319392 3.836037
H 4.093060 -2.200198 3.792294
H 5.179586 0.161478 1.819944
H 5.868645 0.302292 0.159992
H 4.468849 1.326775 0.629330
H -1.170574 -2.410576 -1.729492
H -0.143533 -3.140667 -0.466121
H -2.010649 -3.190530 1.106200
H -2.772449 -3.620567 -0.494808
H -4.005927 -1.833247 1.973692
H -4.993162 -2.180318 0.502722
H -5.841406 -0.031968 0.889023
H -4.420004 0.457056 1.856006
H -4.741793 0.491930 -1.189216
H -4.431281 1.871025 -0.115639
H -2.756145 1.102653 -2.701855
H -2.857939 -0.640822 -2.342004
H -0.480355 0.997342 -2.978768
H -0.591202 -0.757032 -2.944731
H 0.101287 3.468762 -0.890786
H 3.391872 3.029722 2.024915
H 1.827182 3.240262 2.895123
H 2.583163 1.593014 2.767114
H -2.091406 2.259598 0.813700
H -2.135531 2.715114 -0.896235
H -2.071594 -0.229829 1.438948
