52

C -1.490819 -1.165434 -2.647732
C -0.527424 -1.504979 -1.499069
C -0.982599 -1.254878 0.000707
C 0.193077 -1.771691 0.909597
C 1.483469 -1.052403 0.594448
C 2.711017 -1.851856 0.382012
O 2.900751 -2.884063 1.082275
O 3.626344 -1.509692 -0.616974
C 4.806532 -2.262323 -0.869049
C 1.406545 0.271937 0.371635
N 2.397233 1.053578 -0.303394
C 1.708440 2.201681 -0.763336
C 2.234515 3.208057 -1.572502
C 1.394993 4.270217 -1.945391
C 0.058268 4.309508 -1.502274
C -0.448568 3.285715 -0.685243
C 0.395937 2.225841 -0.340948
C 0.126579 1.064217 0.579121
C 0.040387 1.544971 2.040863
C -1.219550 0.924019 2.602227
N -2.064133 0.598951 1.457103
C -3.200591 -0.279705 1.781974
C -2.844239 -1.761503 1.707666
Cl -4.299615 -2.747633 2.035971
C -2.264357 -2.103628 0.329116
O -3.272593 -1.997370 -0.647062
C -1.202835 0.292669 0.290632
H -2.004974 -0.196278 -2.508596
H -0.912413 -1.095847 -3.593758
H -2.231651 -1.975679 -2.801940
H 0.390784 -0.923459 -1.717692
H -0.244736 -2.574603 -1.615458
H 0.324609 -2.865743 0.756573
H -0.013945 -1.629320 1.985349
H 5.449780 -2.274956 0.036205
H 4.540537 -3.301732 -1.155940
H 5.367474 -1.791596 -1.702225
H 3.403722 0.841783 -0.471454
H 3.263221 3.171421 -1.906547
H 1.778109 5.064393 -2.572838
H -0.579170 5.136739 -1.786011
H -1.468196 3.322121 -0.324271
H 0.920144 1.243106 2.652631
H -0.047932 2.653203 2.103301
H -0.972044 0.016209 3.192457
H -1.742747 1.645419 3.266936
H -3.579680 -0.051650 2.803532
H -4.042351 -0.042595 1.098948
H -2.120574 -2.009671 2.509186
H -1.971076 -3.176318 0.354482
H -3.471342 -1.037816 -0.790818
H -1.702311 0.748667 -0.584424
