47

C 5.816312 0.679952 1.317011
C 5.544276 -0.182320 0.063319
C 6.193980 -1.561284 0.243057
O 6.159004 0.436244 -1.044158
C 4.041663 -0.370695 -0.180785
C 3.176245 -0.719351 0.877451
C 1.814040 -0.930638 0.648717
C 1.288887 -0.833256 -0.646388
C -0.181781 -1.020536 -0.882518
O -0.829532 0.224565 -0.720804
C -2.233603 0.066756 -0.805516
O -2.709903 -0.517128 0.397285
C -4.132030 -0.567655 0.524039
C -4.522153 0.124548 1.840370
O -5.854317 -0.162737 2.178142
C -4.952130 -0.014875 -0.685643
O -4.932026 -0.949590 -1.736798
C -4.400109 1.336017 -1.195169
O -5.062777 2.390264 -0.541468
C -2.863988 1.453874 -1.019637
O -2.557643 2.284802 0.074330
C 2.140744 -0.502334 -1.708309
C 3.503614 -0.290711 -1.482683
H 5.230013 1.622900 1.272632
H 5.558242 0.142580 2.253312
H 6.894520 0.944082 1.369309
H 7.289593 -1.454946 0.396354
H 5.764982 -2.092297 1.120157
H 6.028900 -2.184180 -0.662553
H 5.781270 1.351646 -1.130484
H 3.548984 -0.837717 1.885103
H 1.169137 -1.178190 1.483068
H -0.341510 -1.410633 -1.913561
H -0.570942 -1.777431 -0.163095
H -2.491471 -0.577090 -1.679987
H -4.403599 -1.639451 0.645875
H -4.343086 1.222179 1.778142
H -3.872834 -0.262985 2.654358
H -6.394203 0.637008 1.945501
H -6.015942 0.135277 -0.386260
H -5.546767 -1.687087 -1.482866
H -4.634400 1.399855 -2.285097
H -4.891926 3.210945 -1.074031
H -2.444834 1.898374 -1.953958
H -1.644458 2.643576 -0.077793
H 1.751135 -0.414169 -2.715136
H 4.132425 -0.066160 -2.334018
