54

C -3.940893 -3.121306 -0.832624
C -3.694717 -1.671072 -0.524435
C -4.749191 -0.748336 -0.594293
C -4.526600 0.600873 -0.326612
C -3.244210 1.057458 0.023346
C -2.987995 2.525884 0.314683
C -3.814109 3.008571 1.513046
C -3.258838 3.387616 -0.924594
C -2.186867 0.135104 0.085999
C -2.399624 -1.229594 -0.194184
O -1.354002 -2.169977 -0.154518
C 0.010457 -1.870705 0.137621
O 0.531846 -1.047402 -0.897309
C 1.879317 -0.657711 -0.658092
C 1.988357 0.373469 0.486668
O 3.226554 1.071206 0.401497
C 3.553273 2.132517 1.250178
O 2.732729 2.534112 2.120556
C 4.902471 2.771470 1.151623
C 5.210646 3.133510 -0.268482
O 4.690952 4.160693 -0.788520
O 6.058311 2.321739 -1.021196
C 2.818128 -1.885070 -0.518031
O 4.110772 -1.473800 -0.158160
C 2.272123 -2.887738 0.516960
O 3.033739 -4.071119 0.518644
C 0.790889 -3.189437 0.227421
O 0.253565 -3.984868 1.251803
H -5.022246 -3.328090 -0.988794
H -3.390840 -3.403272 -1.754516
H -3.585593 -3.752813 0.010107
H -5.746816 -1.072133 -0.864290
H -5.357427 1.290021 -0.393469
H -1.917363 2.670126 0.583428
H -3.600832 2.376889 2.401370
H -3.548246 4.058698 1.761590
H -4.902014 2.965554 1.294616
H -2.666202 3.011371 -1.785569
H -2.959440 4.439242 -0.730350
H -4.334881 3.371770 -1.195444
H -1.201128 0.488193 0.347704
H 0.044549 -1.357626 1.124543
H 2.207787 -0.123920 -1.577585
H 1.157983 1.104506 0.391371
H 1.916896 -0.116982 1.479167
H 4.939424 3.689378 1.781039
H 5.667778 2.060627 1.533158
H 6.271478 2.547954 -1.987305
H 2.849698 -2.383473 -1.515961
H 4.735097 -2.192212 -0.438739
H 2.348401 -2.437619 1.530680
H 2.957812 -4.480445 -0.382874
H 0.696946 -3.714186 -0.753804
H 0.532099 -4.917647 1.058097
