51

C -0.139911 2.783367 -3.057268
C -0.624493 2.534335 -1.834102
C -0.576056 1.146734 -1.209480
C -1.406652 0.182798 -2.096980
C -1.141359 1.231386 0.249231
C -2.634576 1.621411 0.367140
C -3.566477 0.440970 0.218131
C -3.743123 -0.540689 1.133456
C -4.694190 -1.660627 0.802285
C -2.996760 -0.605422 2.447556
O -1.988643 -1.573332 2.360162
O 0.804589 0.781126 -1.209798
C 1.111045 -0.469149 -0.602258
O 1.523476 -0.256726 0.743037
C 2.865746 0.186536 0.804291
C 3.147871 0.740526 2.206745
O 2.361127 1.875643 2.450943
C 3.824489 -0.983164 0.463404
O 5.007155 -0.457567 -0.084502
C 3.166631 -1.970422 -0.534087
O 2.495837 -2.975337 0.185272
C 2.171038 -1.237702 -1.452910
O 2.884618 -0.358768 -2.288150
H 0.296536 1.993798 -3.660865
H -0.172346 3.790880 -3.459027
H -1.016086 3.375972 -1.269545
H -0.830497 -0.102669 -3.002716
H -1.681967 -0.745461 -1.555338
H -2.351946 0.664082 -2.428264
H -0.542558 1.984320 0.807990
H -0.987731 0.274587 0.781138
H -2.820341 2.117216 1.343097
H -2.901196 2.373216 -0.403328
H -4.159138 0.408524 -0.693022
H -5.718854 -1.255477 0.663312
H -4.722824 -2.417449 1.614709
H -4.370829 -2.165538 -0.132832
H -3.711349 -0.885455 3.253057
H -2.557067 0.372462 2.733766
H -1.531640 -1.577175 3.241117
H 0.233331 -1.145760 -0.551214
H 3.029956 1.026904 0.087348
H 4.216683 1.035324 2.278564
H 2.955771 -0.038618 2.980248
H 1.456160 1.549397 2.696644
H 4.071869 -1.543702 1.397265
H 5.700966 -1.163516 -0.005037
H 3.961305 -2.443057 -1.158916
H 2.329586 -3.722148 -0.447731
H 1.653449 -1.999695 -2.084050
H 2.319376 -0.196889 -3.088484
