47

O 0.508856 3.980330 -0.359833
C 0.233534 3.314314 0.673577
O 0.077158 3.974290 1.888692
C 0.046766 1.814092 0.626806
C -1.442538 1.433302 0.860071
C -1.802122 0.201792 -0.005835
C -3.239643 -0.333174 0.321505
C -3.274148 -1.805262 0.779620
C -2.442843 -2.700439 -0.149200
N -1.103480 -2.139404 -0.329162
C -0.261212 -2.435080 -1.425117
O -0.428826 -3.439358 -2.166960
C 0.796959 -1.425396 -1.639231
C 0.641073 -0.470521 -0.402158
C 1.927786 -0.552075 0.362067
C 2.421606 -1.565646 1.183956
C 3.742192 -1.457004 1.650892
C 4.546056 -0.362644 1.269589
C 4.037484 0.630472 0.414838
C 2.726359 0.501315 -0.040495
N 2.015987 1.434450 -0.852429
C 0.607302 1.083740 -0.669335
C -0.363873 1.384211 -1.832688
C -1.720752 0.678616 -1.511238
C -0.697679 -0.884965 0.280215
H 0.188264 4.979134 1.952836
H 0.612531 1.432207 1.505822
H -1.602938 1.207149 1.938119
H -2.118373 2.278483 0.596222
H -3.898573 -0.244176 -0.570068
H -3.720166 0.282589 1.112868
H -4.325319 -2.165589 0.799030
H -2.874082 -1.877563 1.814645
H -2.952995 -2.770742 -1.134806
H -2.362160 -3.719869 0.283833
H 0.640645 -0.944850 -2.619115
H 1.782202 -1.942022 -1.680773
H 1.808154 -2.418142 1.444615
H 4.148356 -2.223616 2.297762
H 5.561833 -0.288143 1.635377
H 4.646350 1.476056 0.122825
H 2.381715 2.369987 -1.136472
H -0.539946 2.473578 -1.929785
H 0.036479 1.074229 -2.817313
H -1.856391 -0.191550 -2.188626
H -2.550598 1.386643 -1.729757
H -0.556989 -1.033749 1.374613
