75

C 6.842421 3.178039 -1.851104
O 7.869384 2.241158 -1.542590
C 7.672438 1.051201 -0.823533
C 6.410481 0.676852 -0.327319
C 6.246098 -0.513695 0.395301
C 4.888943 -0.862777 0.886329
C 4.658336 -1.710580 1.898580
C 3.295344 -2.026677 2.352558
O 3.137785 -2.840433 3.302491
O 2.187404 -1.435077 1.737291
C 0.846062 -1.757800 2.092731
C -0.135317 -0.928514 1.258419
O -1.446170 -1.174012 1.756276
C -2.427163 -0.607941 0.906951
O -3.673013 -0.627578 1.590125
C -4.179482 0.674667 1.810819
C -4.805889 1.230277 0.544448
C -4.223652 2.297237 -0.031081
C -4.644381 2.795799 -1.344336
O -4.113708 3.835004 -1.818984
C -5.646423 2.033074 -2.151571
C -6.691271 1.337609 -1.241901
C -7.590321 2.413426 -0.582299
C -7.576458 0.453702 -2.153643
C -5.928039 0.461042 -0.172987
C -6.866803 -0.265552 0.825637
O -7.401700 0.629896 1.762632
C -2.538690 -1.443464 -0.393717
O -3.526897 -2.433783 -0.254342
C -1.183891 -2.115594 -0.732088
O -1.091024 -2.426843 -2.100666
C 0.006133 -1.255156 -0.267207
O 0.043356 -0.061226 -1.008512
C 7.359638 -1.350833 0.594699
C 8.628984 -0.987989 0.105698
O 9.758839 -1.799978 0.298580
C 9.756727 -3.039148 1.000374
C 8.777052 0.218750 -0.600463
O 10.023489 0.606921 -1.094916
H 6.057055 2.693864 -2.469057
H 7.280184 4.018376 -2.427884
H 6.399259 3.581101 -0.916021
H 5.551069 1.313548 -0.492487
H 4.046865 -0.366323 0.416439
H 5.478233 -2.176204 2.428525
H 0.662285 -2.841604 1.923415
H 0.689057 -1.534175 3.170918
H 0.118358 0.141970 1.439657
H -2.115182 0.428364 0.612207
H -4.956090 0.614158 2.599066
H -3.399749 1.346267 2.241477
H -3.404960 2.807067 0.463412
H -5.093415 1.272570 -2.746420
H -6.147434 2.720199 -2.869730
H -8.468422 1.952228 -0.084198
H -7.027164 3.002655 0.171871
H -7.983988 3.117113 -1.347433
H -6.991636 -0.393144 -2.572735
H -8.452032 0.044491 -1.609683
H -7.976887 1.048785 -3.002893
H -5.411883 -0.345894 -0.738953
H -7.686550 -0.789723 0.293611
H -6.295562 -1.057751 1.358288
H -7.982472 0.091471 2.360399
H -2.832482 -0.742530 -1.211186
H -3.765263 -2.730954 -1.171289
H -1.124613 -3.076097 -0.172050
H -1.167807 -1.580569 -2.613061
H 0.937751 -1.834156 -0.472735
H 0.947796 0.327431 -0.877474
H 7.238964 -2.294331 1.104247
H 10.785670 -3.453567 1.006335
H 9.085070 -3.764186 0.493925
H 9.430740 -2.882966 2.050408
H 10.856611 0.045600 -0.965590
