50

C -4.592672 3.882558 -0.155872
O -4.394122 2.515938 0.185202
C -3.321032 1.762966 -0.305442
O -2.490629 2.291795 -1.093841
C -3.174428 0.338862 0.083887
C -4.255140 -0.323014 0.542927
O -4.225246 -1.700410 0.800011
C -3.163759 -2.540108 0.350190
C -3.452414 -2.975283 -1.095348
C -1.834178 -1.780546 0.548060
C -0.560125 -2.582020 0.172362
N 0.574804 -1.697823 -0.188644
C 1.849250 -2.455529 -0.128780
C 3.001556 -1.641298 -0.740989
C 2.987066 -0.267313 -0.160495
C 1.878993 0.296819 0.436303
N 2.144117 1.552199 0.868051
C 3.419518 1.789609 0.502832
C 4.154728 2.955627 0.710670
C 5.481679 2.988867 0.242499
C 6.039136 1.868520 -0.414530
C 5.276140 0.702547 -0.609424
C 3.965955 0.700270 -0.135144
C 0.599690 -0.468870 0.652372
C -0.625544 0.420912 0.318247
C -1.855733 -0.401594 -0.151574
H -3.720612 4.486816 0.172588
H -5.502963 4.257262 0.355421
H -4.728451 3.984583 -1.253419
H -5.186223 0.199316 0.721841
H -3.153115 -3.452749 0.984874
H -3.385177 -2.121120 -1.799293
H -2.764745 -3.781011 -1.420654
H -4.483373 -3.384077 -1.153982
H -1.770914 -1.582341 1.644128
H -0.754476 -3.243021 -0.693974
H -0.295974 -3.237744 1.033784
H 1.758296 -3.405428 -0.701148
H 2.097379 -2.712015 0.926735
H 3.971125 -2.137763 -0.523194
H 2.867852 -1.570304 -1.841500
H 1.500227 2.197974 1.377110
H 3.719993 3.809207 1.214452
H 6.079498 3.879331 0.386871
H 7.060756 1.907020 -0.769427
H 5.695060 -0.161127 -1.109400
H 0.562871 -0.753592 1.729107
H -0.884088 1.014617 1.223193
H -0.355406 1.135564 -0.489895
H -1.755151 -0.563080 -1.247748
