60

C -7.964262 1.611050 -2.527175
C -6.821827 0.904788 -1.859513
C -6.935293 0.502114 -0.504661
C -5.864739 -0.138160 0.146072
C -4.692987 -0.346103 -0.580518
C -3.492214 -0.931447 -0.239647
C -3.132877 -1.611549 1.052516
O -1.753231 -1.471835 1.333289
C -1.439092 -0.180026 1.844869
O -0.538840 0.493338 0.977871
C 0.689145 -0.205125 0.848079
C 1.525419 0.481676 -0.240155
O 2.722832 -0.242581 -0.447101
C 3.656618 0.533298 -1.178289
O 4.259419 1.464744 -0.279956
C 5.472158 1.969502 -0.798029
C 6.561571 0.878057 -0.748806
O 7.594626 1.176829 -1.659510
C 5.955141 -0.532136 -0.993567
O 6.887029 -1.380659 -1.614033
C 4.686816 -0.423759 -1.856085
O 4.118237 -1.695023 -2.056633
C 1.443890 -0.240680 2.199930
O 1.801685 1.067475 2.573908
C 0.560395 -0.867755 3.301210
O 0.556288 -2.274763 3.231823
C -0.868683 -0.279435 3.275560
O -1.732626 -1.042403 4.079645
C -2.715297 -0.865577 -1.393332
O -3.388996 -0.265173 -2.358705
C -4.572283 0.049142 -1.886497
C -5.613085 0.684891 -2.559272
H -8.932019 1.181018 -2.190299
H -7.936054 2.690325 -2.266297
H -7.906265 1.503710 -3.631917
H -7.852184 0.682731 0.041875
H -5.952687 -0.451459 1.178003
H -3.763524 -1.249078 1.896893
H -3.355625 -2.693944 0.939465
H -2.335392 0.482225 1.922706
H 0.513247 -1.243162 0.485835
H 1.717560 1.537777 0.061379
H 0.935014 0.491319 -1.184168
H 3.145373 1.095128 -1.999301
H 5.325993 2.355709 -1.833409
H 5.793435 2.832694 -0.178510
H 7.005619 0.877289 0.272909
H 7.212798 1.118786 -2.575354
H 5.655352 -0.971425 -0.011371
H 7.559164 -1.614377 -0.923936
H 4.967673 0.015336 -2.844340
H 4.621885 -2.124095 -2.798068
H 2.364586 -0.860840 2.081397
H 2.548609 0.987213 3.223969
H 1.006984 -0.607217 4.286303
H 0.230574 -2.548154 2.338933
H -0.816581 0.761951 3.675524
H -1.518470 -0.816626 5.022468
H -1.708294 -1.248402 -1.502887
H -5.491707 0.992850 -3.590847
