27

O -3.056413 0.587171 -0.035874
C -1.682119 0.526500 0.249756
C -0.903888 1.532222 -0.596761
C 0.474317 0.907174 -0.784853
C 1.398534 1.245713 0.403902
C 2.638263 0.329507 0.463318
O 2.523813 -0.877696 -0.273433
C 1.233021 -1.452906 -0.182891
O 0.821650 -1.637715 1.151526
C -0.589094 -1.658131 1.118936
C -1.082729 -0.862044 -0.105971
O -1.982458 -1.652118 -0.852030
C 0.192760 -0.598844 -0.886827
H -3.389584 1.439305 0.349800
H -1.518088 0.769709 1.325062
H -0.856246 2.530301 -0.107977
H -1.389970 1.645860 -1.591773
H 0.943313 1.275809 -1.724360
H 0.845520 1.136651 1.362374
H 1.719446 2.308122 0.334974
H 3.505729 0.889299 0.053822
H 2.884104 0.094337 1.522019
H 1.271483 -2.450171 -0.676521
H -0.984112 -1.255700 2.075075
H -0.923195 -2.717712 1.055535
H -2.197646 -1.162082 -1.689095
H 0.103591 -0.892562 -1.957736
