51

C -5.367825 3.345540 -3.047595
O -4.245815 2.597445 -2.593469
C -4.241894 1.903908 -1.377216
O -5.264499 1.923063 -0.639889
C -3.040334 1.142738 -0.964291
C -2.039617 0.905646 -1.841275
O -0.905056 0.140416 -1.474771
C -0.700150 -0.420796 -0.160502
O 0.668905 -0.361357 0.180284
C 1.451980 -1.233828 -0.622558
O 2.272204 -2.027075 0.227842
C 3.415552 -1.310591 0.655183
C 4.060344 -2.050876 1.832903
O 3.158631 -2.143754 2.903487
C 4.410438 -1.170148 -0.526922
O 5.288613 -0.091044 -0.312728
C 3.655055 -1.046101 -1.879534
O 4.393312 -0.297795 -2.811216
C 2.258004 -0.425096 -1.687037
O 2.372754 0.921026 -1.293055
C -1.506139 0.415983 0.833692
C -1.655909 -0.017483 2.254640
C -0.547274 -0.489740 3.155245
O -0.723612 -1.844476 3.462743
C -2.873540 0.317433 2.692049
C -3.714858 0.897280 1.591223
C -2.953291 0.416848 0.356940
H -5.590200 4.167027 -2.333777
H -5.136800 3.783141 -4.041610
H -6.253387 2.680191 -3.144026
H -2.078499 1.310416 -2.845566
H -1.076077 -1.469893 -0.128877
H 0.832726 -1.967747 -1.193241
H 3.122948 -0.300333 1.028449
H 4.341752 -3.079175 1.520654
H 4.988462 -1.525843 2.155669
H 3.137574 -1.250356 3.336985
H 5.031803 -2.091266 -0.592113
H 4.748915 0.741796 -0.297617
H 3.496097 -2.073447 -2.287568
H 5.166767 -0.859670 -3.079627
H 1.705243 -0.478313 -2.655191
H 2.540526 1.452348 -2.113677
H -1.101175 1.455976 0.839250
H 0.446445 -0.324981 2.685942
H -0.561231 0.097675 4.097079
H -0.438223 -2.355312 2.659944
H -3.194698 0.227515 3.725170
H -3.718429 2.007286 1.661855
H -4.747345 0.488070 1.622088
H -3.289175 -0.632271 0.166702
