102

C 4.979874 -0.554391 4.014289
C 4.156014 -0.155518 2.787504
C 5.046647 0.338163 1.617601
C 5.432946 -0.804310 0.651118
N 6.169878 -0.367081 -0.567766
C 7.628294 -0.424962 -0.358537
C 5.727667 0.908998 -1.209406
C 4.538780 0.720637 -2.196524
C 3.650150 -0.453434 -1.912422
C 2.639469 -0.584636 -0.945637
N 2.093910 -1.824327 -1.020997
C 2.747147 -2.477444 -1.990525
C 2.538142 -3.791817 -2.403501
C 3.354472 -4.294799 -3.429605
C 4.354209 -3.484955 -4.007967
C 4.541163 -2.160441 -3.569703
C 3.708142 -1.683037 -2.554025
C 2.161024 0.388907 0.110371
C 0.734459 0.780546 -0.236588
C 0.465894 1.600857 -1.365292
C -0.851633 1.943733 -1.706505
C -1.884699 1.425773 -0.931197
N -3.199784 1.611044 -1.114676
C -3.836471 0.869194 -0.166629
C -2.881463 0.231358 0.639911
C -1.646824 0.606627 0.135869
C -0.346123 0.271013 0.521807
C -3.114108 -0.581954 1.874785
C -4.112746 -1.722363 1.645581
N -5.500306 -1.279756 1.431486
C -6.141434 -0.547732 2.556119
C -6.897491 0.680285 2.017623
C -8.002199 0.165518 1.057776
C -7.393890 -0.790296 -0.023517
C -7.910413 -2.244590 0.111605
C -9.354655 -2.396293 -0.366468
C -5.831865 -0.733131 0.088607
C -5.362865 0.770701 -0.044598
C -5.954330 1.353828 -1.331395
O -6.534504 2.475547 -1.337933
O -5.796642 0.648189 -2.530573
C -6.269995 1.142040 -3.776172
C -5.877488 1.541892 1.229600
C 2.993809 1.661808 0.433419
C 4.493820 1.604113 0.905361
C 5.474154 2.059314 -0.201689
C 6.772209 2.639947 0.339685
O 7.723147 2.880943 -0.453453
O 6.896681 2.977614 1.691721
C 8.083063 3.542402 2.233362
H 4.315741 -1.000492 4.782843
H 5.469913 0.340692 4.452532
H 5.755561 -1.298785 3.739104
H 3.564413 -1.042654 2.481913
H 3.441762 0.635959 3.103374
H 6.011301 0.656468 2.069657
H 4.554737 -1.400954 0.365930
H 6.042281 -1.542567 1.224605
H 7.939385 0.216481 0.491462
H 8.174858 -0.121796 -1.275099
H 7.934824 -1.469425 -0.144237
H 6.538842 1.267351 -1.883081
H 4.948750 0.596151 -3.222435
H 3.918273 1.637489 -2.276374
H 1.324990 -2.205892 -0.426126
H 1.776278 -4.409583 -1.945629
H 3.216213 -5.310805 -3.776288
H 4.983227 -3.888143 -4.789974
H 5.314260 -1.545139 -4.006943
H 2.119440 -0.190304 1.051029
H 1.275432 1.961046 -1.988104
H -1.056943 2.571848 -2.563141
H -3.623607 2.210427 -1.858059
H -0.165871 -0.379719 1.365689
H -3.407368 0.093376 2.701159
H -2.162110 -1.052308 2.198270
H -3.779400 -2.342163 0.785618
H -4.092131 -2.389020 2.534120
H -6.859426 -1.229279 3.061075
H -5.424226 -0.235322 3.338618
H -7.343436 1.265172 2.851911
H -8.487396 1.034131 0.561103
H -8.788998 -0.342116 1.657829
H -7.705609 -0.438944 -1.029817
H -7.276305 -2.918084 -0.506320
H -7.838945 -2.589416 1.166203
H -9.437805 -2.120000 -1.439553
H -10.037693 -1.755354 0.228502
H -9.673322 -3.454031 -0.248521
H -5.375766 -1.359619 -0.711192
H -7.371546 1.274768 -3.738030
H -6.019550 0.418484 -4.575568
H -5.782790 2.111846 -4.010410
H -6.346893 2.518014 0.992489
H -5.031848 1.792713 1.908280
H 2.897003 2.387466 -0.397825
H 2.430912 2.162441 1.257015
H 4.535199 2.403770 1.679701
H 5.020851 2.913114 -0.750917
H 8.291436 4.519640 1.753233
H 8.940928 2.857532 2.071295
H 7.948935 3.701814 3.322310
