48

C -3.091257 3.527089 -0.050877
C -3.500599 2.308104 0.719976
C -2.942205 1.088334 0.563890
C -3.393204 -0.036268 1.421167
O -4.338107 0.097954 2.244185
C -1.794482 0.836035 -0.412481
C -0.473786 0.801399 0.381578
C 0.677449 0.331821 -0.509175
C 1.956701 0.273810 0.281271
N 2.526025 1.307009 0.945335
C 3.648280 0.801996 1.493809
C 4.573937 1.472631 2.291833
C 5.678537 0.744415 2.771792
C 5.831753 -0.622774 2.448392
C 4.882910 -1.275843 1.640461
C 3.801603 -0.527745 1.178467
C 2.728945 -0.867180 0.384217
C 2.353360 -2.184144 -0.209235
C 1.415255 -1.954668 -1.403736
N 0.345704 -0.997677 -1.060942
C -0.992188 -1.255172 -1.526568
C -2.016331 -0.427036 -1.244328
C -3.336794 -0.673590 -1.878388
O -4.202216 0.244303 -1.909893
O -3.620338 -1.919258 -2.450330
C -4.866285 -2.213728 -3.070112
H -3.300753 3.384377 -1.131821
H -3.672341 4.404367 0.302946
H -2.011941 3.736200 0.105009
H -4.290505 2.447082 1.448654
H -2.906182 -0.999630 1.343913
H -1.711956 1.659264 -1.152127
H -0.259708 1.819426 0.775058
H -0.564337 0.106973 1.247390
H 0.814383 1.048828 -1.348089
H 2.170424 2.286003 1.021256
H 4.447296 2.519132 2.537182
H 6.415297 1.235061 3.394374
H 6.685074 -1.171709 2.824771
H 4.992279 -2.322530 1.387888
H 3.262675 -2.726497 -0.545342
H 1.833873 -2.791263 0.562529
H 0.989747 -2.935699 -1.708707
H 1.997291 -1.553635 -2.261968
H -1.166015 -2.132378 -2.138707
H -5.691269 -2.107540 -2.334153
H -5.036307 -1.527588 -3.926707
H -4.849691 -3.258058 -3.443658
