70

O -2.421673 2.740048 3.083616
C -2.202093 1.724193 2.366903
C -0.826310 1.227799 2.197052
C 0.218071 2.069638 2.222141
O 1.474831 1.659780 1.771604
C 1.621549 0.509270 0.943375
O 2.997915 0.174171 0.859226
C 3.570601 0.531244 -0.387478
O 4.957731 0.724316 -0.192149
C 5.546567 1.388870 -1.304338
C 7.073284 1.399340 -1.103245
O 7.399460 1.980480 0.131359
C 5.109900 0.766733 -2.679431
O 6.170473 0.690415 -3.601252
C 4.479127 -0.630013 -2.502354
O 5.462763 -1.598537 -2.225949
C 3.354962 -0.606599 -1.428900
O 3.216098 -1.872359 -0.824831
C 0.808279 -0.663045 1.541265
C 1.481457 -1.253079 2.825296
O 1.462208 -0.338590 3.894603
C 0.898160 -2.622340 3.241191
O 1.712296 -3.225471 4.209692
C -0.675201 -0.214129 1.774267
C -1.570611 -0.423181 0.544193
C -3.057123 -0.197410 0.923118
C -3.941161 -0.247121 -0.287964
N -3.756229 -0.975896 -1.415286
C -4.897237 -0.834172 -2.118557
C -5.216444 -1.426754 -3.338529
C -6.496004 -1.187779 -3.870337
C -7.424770 -0.383318 -3.173103
C -7.084675 0.189574 -1.933681
C -5.803372 -0.050464 -1.441189
C -5.185355 0.334349 -0.272295
C -5.734043 1.001721 0.940463
C -4.609878 1.756073 1.683371
N -3.284136 1.084795 1.651572
H 0.100524 3.090417 2.561302
H 1.164404 0.736474 -0.051268
H 3.123621 1.485509 -0.769591
H 5.225475 2.456568 -1.292358
H 7.487601 0.367322 -1.170396
H 7.550241 2.009347 -1.898241
H 7.310880 1.266697 0.817488
H 4.309301 1.417997 -3.108182
H 6.305290 1.607031 -3.960021
H 4.013958 -0.913723 -3.471648
H 5.870444 -1.384219 -1.349163
H 2.396214 -0.390174 -1.949136
H 3.931810 -1.960767 -0.139373
H 0.823226 -1.474923 0.779657
H 2.547956 -1.455919 2.589513
H 0.538613 -0.308844 4.256426
H 0.866319 -3.290982 2.355292
H -0.140146 -2.530375 3.626693
H 1.497638 -2.788021 5.075520
H -1.111604 -0.834364 2.583375
H -1.445922 -1.465914 0.179178
H -1.270576 0.271073 -0.272394
H -3.365978 -1.029205 1.593054
H -2.935574 -1.567104 -1.669351
H -4.506098 -2.057109 -3.857466
H -6.774894 -1.629212 -4.817908
H -8.408658 -0.215652 -3.591052
H -7.796009 0.793480 -1.382874
H -6.160453 0.221626 1.608924
H -6.544495 1.707409 0.659713
H -4.505277 2.763856 1.223257
H -4.927248 1.899148 2.740459
