64

C -1.087568 -1.929111 -0.784195
C -0.627647 -1.990854 0.470594
C -0.267257 -0.768549 1.295104
C -1.516907 0.035226 1.698867
O -2.161962 0.543569 0.543446
C -3.542964 0.747643 0.774275
O -4.201912 -0.511025 0.673834
C -5.600101 -0.348110 0.540242
C -6.304600 -1.667553 0.886412
O -5.732201 -2.733553 0.178063
C -5.944637 0.176963 -0.881297
O -6.159036 -0.883264 -1.780743
C -4.825531 1.115731 -1.415013
O -3.930910 0.442113 -2.269720
C -4.056862 1.794439 -0.260868
O -4.899600 2.714120 0.389274
O -1.116607 1.129121 2.525055
C 0.067473 1.846062 2.306466
C 0.996647 1.417588 1.431230
C 2.243681 2.181948 1.207068
O 2.418987 3.281538 1.801416
N 3.265001 1.674048 0.319251
C 4.413709 2.553829 0.023039
C 5.281077 2.030623 -1.125876
C 5.540842 0.562741 -0.955824
C 6.807717 0.026770 -1.228104
C 7.033655 -1.346797 -1.116830
O 8.306975 -1.848138 -1.387113
C 5.982973 -2.197693 -0.742623
O 6.203658 -3.570237 -0.634990
C 4.711118 -1.666200 -0.483154
C 4.477394 -0.277088 -0.577105
C 3.107484 0.368118 -0.368640
C 2.105497 -0.546366 0.374683
C 0.764785 0.168732 0.608862
H -1.220544 -0.982571 -1.295704
H -1.326985 -2.843617 -1.318177
H -0.496927 -2.970088 0.924474
H 0.190880 -1.142885 2.239261
H -2.178329 -0.639652 2.293132
H -3.710105 1.165623 1.798304
H -5.971290 0.394125 1.287067
H -7.389405 -1.586612 0.648145
H -6.198868 -1.854580 1.978808
H -6.236578 -3.545193 0.447838
H -6.887207 0.766947 -0.789321
H -6.616571 -0.497334 -2.573379
H -5.309424 1.911025 -2.024238
H -3.574359 -0.344598 -1.783429
H -3.186464 2.348316 -0.687748
H -4.970712 3.510998 -0.199047
H 0.227783 2.746434 2.885589
H 4.049835 3.567570 -0.254351
H 5.040729 2.648546 0.936853
H 6.231760 2.607550 -1.152501
H 4.753185 2.188936 -2.091948
H 7.621337 0.675300 -1.530820
H 8.521670 -2.836350 -1.325116
H 5.462070 -4.209059 -0.373077
H 3.923968 -2.351830 -0.208233
H 2.686527 0.565843 -1.379569
H 2.538581 -0.869102 1.347927
H 1.909255 -1.444941 -0.247786
H 0.363819 0.494814 -0.375846
