66

C 2.532536 -2.882332 2.033754
O 1.704422 -1.836494 1.575929
C 1.115187 -2.187841 0.336537
O 0.021452 -3.051920 0.581242
C -1.020611 -2.631815 -0.268454
C -2.354142 -3.149116 0.279474
C -0.725564 -3.262133 -1.687194
C 0.266116 -2.377792 -2.434558
O 0.890732 -2.785326 -3.400797
C 0.399522 -0.946943 -1.940739
C -1.042998 -0.466572 -1.735650
C -0.935459 -1.060246 -0.313656
O -1.491892 -0.358372 0.789698
C -2.798312 0.121548 0.520372
O -2.704429 1.462036 0.073205
C -3.945366 1.889624 -0.469734
C -3.819040 3.362903 -0.885747
O -3.557287 4.182905 0.222031
C -5.136319 1.670909 0.521691
O -5.983594 0.659950 0.037448
C -4.621346 1.261053 1.915874
O -3.961166 2.347473 2.517259
C -3.655996 0.054599 1.812430
O -2.833186 -0.003767 2.951838
C 0.571721 -0.929509 -0.387410
C 1.155072 0.416034 0.117664
O 2.563405 0.423295 -0.090146
C 3.380867 1.495974 0.278060
O 2.870513 2.539787 0.770965
C 4.844460 1.399485 0.090085
C 5.683864 2.482264 0.410123
C 7.067287 2.381358 0.233362
C 7.629529 1.198921 -0.264048
O 9.006385 1.087208 -0.443389
C 6.801783 0.119109 -0.583685
C 5.418083 0.215998 -0.408471
H 1.974740 -3.841793 2.115068
H 2.902437 -2.622012 3.046449
H 3.419078 -3.002124 1.372561
H 1.855781 -2.686648 -0.333544
H -2.338449 -4.258896 0.327569
H -2.528041 -2.763600 1.305833
H -3.193674 -2.840136 -0.377614
H -1.655740 -3.338741 -2.290791
H -0.306023 -4.285290 -1.570961
H 1.055456 -0.273854 -2.534915
H -1.105170 0.643157 -1.747816
H -1.826385 -0.928207 -2.377740
H -3.311355 -0.509671 -0.248488
H -4.137112 1.325856 -1.412755
H -4.766221 3.696180 -1.361234
H -3.012498 3.471493 -1.646909
H -2.589754 4.090752 0.424094
H -5.734786 2.605198 0.641770
H -6.497441 1.053951 -0.715470
H -5.486233 0.960910 2.553647
H -4.664010 2.976149 2.828045
H -4.263605 -0.880103 1.760276
H -3.407212 -0.303226 3.705045
H 0.702174 1.277791 -0.418533
H 0.940179 0.544162 1.200867
H 5.272383 3.406693 0.795643
H 7.701015 3.222666 0.483109
H 9.633115 1.851258 -0.218945
H 7.231141 -0.797422 -0.967792
H 4.799982 -0.636746 -0.660414
