114

C -4.479292 -2.715820 -2.222228
C -4.735331 -3.196781 -0.784360
C -5.544139 -2.249528 0.155725
C -6.901899 -1.773295 -0.482021
N -6.936490 -0.362413 -0.996467
C -8.315467 0.142025 -0.910054
C -6.009794 0.591431 -0.340676
C -4.825374 0.829607 -1.298411
C -3.745683 1.733430 -0.760028
C -2.748415 1.488187 0.213667
N -1.985731 2.598648 0.365676
C -2.447761 3.509742 -0.500730
C -1.929987 4.785745 -0.728153
C -2.535660 5.576603 -1.722604
C -3.626234 5.076769 -2.458384
C -4.132888 3.792337 -2.202470
C -3.509069 3.024222 -1.206319
C -2.547787 0.276203 1.103268
C -1.064012 0.040927 1.359361
C -0.209163 -0.363723 0.305559
C 1.151036 -0.542806 0.585351
C 2.216400 -0.963801 -0.205209
C 3.339516 -0.952388 0.646894
N 2.973074 -0.539741 1.880449
C 1.657230 -0.298317 1.825300
C 0.861286 0.103601 2.884759
C -0.523264 0.273262 2.659723
O -1.370827 0.664767 3.707679
C -0.959788 0.857222 5.058031
C 4.790576 -1.304383 0.335400
C 5.131916 -2.432237 1.282694
O 5.637548 -2.183802 2.412500
O 4.766211 -3.737485 0.955787
C 5.081936 -4.836418 1.803152
C 5.685104 -0.036100 0.600855
C 6.203352 0.564892 -0.731498
C 7.214212 -0.449267 -1.311006
C 6.516728 -1.827070 -1.547381
C 7.258024 -2.999064 -0.873411
C 8.603247 -3.272334 -1.535615
C 5.008045 -1.726222 -1.161813
N 4.468044 -0.644262 -2.016259
C 3.119103 -0.825591 -2.585164
C 2.123256 -1.475167 -1.612153
C 5.022638 0.718133 -1.741295
C 3.967270 1.755922 -1.259612
C 4.609804 3.065986 -0.872478
C 5.158011 3.991837 -1.915377
O 4.730857 3.364277 0.306306
C -3.251380 -1.008830 0.626552
C -4.768098 -1.171698 1.012814
C -5.654320 0.093745 1.079631
C -5.433920 1.155540 2.135938
O -4.889000 0.851098 3.232301
O -6.099840 2.374652 2.017788
C -6.824841 2.925477 3.108977
H -4.368729 -3.598348 -2.881226
H -3.524068 -2.153037 -2.302818
H -5.315043 -2.108882 -2.637160
H -3.775354 -3.493923 -0.305707
H -5.328806 -4.132444 -0.877535
H -5.890093 -2.970335 0.937977
H -7.209366 -2.454977 -1.294222
H -7.699345 -1.909422 0.295677
H -8.424379 1.062211 -1.524655
H -8.595852 0.360424 0.145445
H -9.035349 -0.613737 -1.314812
H -6.493685 1.587679 -0.247208
H -4.407030 -0.111732 -1.671541
H -5.239683 1.282472 -2.217889
H -1.197606 2.723159 1.037562
H -1.084363 5.154996 -0.168120
H -2.147785 6.563211 -1.939256
H -4.068209 5.684500 -3.229683
H -4.966025 3.418851 -2.776226
H -2.977240 0.532540 2.067419
H -0.600809 -0.521674 -0.687476
H 3.588604 -0.428610 2.712704
H 1.309484 0.284667 3.853156
H -1.843567 1.134536 5.661446
H -0.523776 -0.088399 5.452313
H -0.214582 1.671460 5.114686
H 4.520088 -4.752854 2.756010
H 6.179113 -4.836137 2.019640
H 4.820987 -5.790842 1.293678
H 6.571109 -0.292560 1.221196
H 5.148000 0.748434 1.166698
H 6.723278 1.525752 -0.554541
H 7.611345 -0.063001 -2.278384
H 8.072807 -0.540435 -0.615503
H 6.525927 -2.029204 -2.641162
H 7.450199 -2.792905 0.201636
H 6.642891 -3.921083 -0.962042
H 8.509051 -3.271807 -2.645570
H 9.350719 -2.499180 -1.242418
H 8.997109 -4.265700 -1.220269
H 4.519688 -2.694754 -1.386559
H 2.718974 0.116385 -2.997685
H 3.219697 -1.511476 -3.450212
H 2.269937 -2.576339 -1.592352
H 1.106601 -1.306935 -2.009598
H 5.443220 1.107134 -2.693163
H 3.245141 1.984881 -2.068836
H 3.390931 1.390176 -0.400976
H 6.268011 3.878520 -1.956168
H 4.911033 5.049204 -1.666736
H 4.735293 3.748227 -2.914872
H -3.044230 -1.121920 -0.445228
H -2.728274 -1.878479 1.092725
H -4.742995 -1.542076 2.064544
H -6.614068 -0.285561 1.489585
H -7.200714 3.930524 2.823042
H -7.700010 2.278525 3.332798
H -6.177170 3.002556 4.012650
