47

C 4.812394 1.061242 -0.182069
C 4.339793 -0.355539 -0.317534
C 3.054245 -0.721593 -0.160573
C 2.607363 -2.166152 -0.317179
N 1.120815 -2.207761 -0.369689
C 0.521553 -1.725109 0.935259
C 1.260623 -0.448640 1.420323
C 1.908884 0.214613 0.179600
C 0.919523 0.191320 -1.048015
C 0.695258 -1.304808 -1.487145
C -0.813062 -1.462615 -1.696208
C -1.307317 -0.607044 -0.557087
C -0.926093 -1.332336 0.712377
N -1.914441 -1.588487 1.513036
C -3.070445 -1.072737 0.861204
C -4.379077 -1.119343 1.338569
C -5.397094 -0.562991 0.543964
C -5.090598 0.022803 -0.702540
C -3.763777 0.057245 -1.164396
C -2.774128 -0.501553 -0.356932
C -0.521226 0.699036 -0.744299
O -0.620937 1.562019 0.388664
C -0.148656 2.877857 0.389594
C -0.273680 3.699839 1.626101
O 0.347981 3.386302 -0.652035
H 5.903343 1.111045 -0.380766
H 4.623735 1.428750 0.848551
H 4.288347 1.709505 -0.915812
H 5.077040 -1.115275 -0.562060
H 3.029088 -2.600141 -1.250611
H 2.978366 -2.772156 0.537870
H 0.582435 -2.527242 1.702455
H 2.044614 -0.731849 2.159545
H 0.597071 0.249012 1.972759
H 2.235825 1.247815 0.417104
H 1.355714 0.775770 -1.887993
H 1.232750 -1.546454 -2.432294
H -1.141235 -2.524230 -1.621386
H -1.125901 -1.044990 -2.679674
H -4.606044 -1.572248 2.294820
H -6.422064 -0.584978 0.890556
H -5.881350 0.448521 -1.306363
H -3.517256 0.505675 -2.117854
H -0.924635 1.228514 -1.638509
H -0.329984 3.037943 2.515666
H -1.195690 4.314743 1.569804
H 0.607931 4.366703 1.731201
