51

C -3.913846 2.111196 2.798905
O -2.875582 1.304042 2.286385
C -2.717196 1.533368 0.899337
O -2.065755 2.779652 0.704962
C -2.346547 3.288495 -0.581661
C -1.850904 0.421831 0.347097
C -0.503071 0.315191 0.743115
N 0.306906 -0.685323 0.257182
C 1.721722 -0.773598 0.673857
C 2.506090 0.475272 0.213210
C 3.992775 0.303461 0.402036
C 4.742028 -0.435921 -0.528888
C 6.115654 -0.618639 -0.341867
C 6.749565 -0.069842 0.776153
C 6.010480 0.661494 1.709878
C 4.636583 0.846633 1.526870
C 1.819257 -1.007990 2.160894
O 1.725388 -0.050767 2.974524
O 1.965301 -2.301927 2.644934
C -0.191222 -1.602492 -0.632094
C -1.522296 -1.521320 -1.038149
C -2.341036 -0.539353 -0.549543
C -3.715677 -0.653033 -1.103795
C -3.692398 -1.962118 -1.912568
C -2.218708 -2.421409 -1.994911
C -1.650295 -2.262309 -3.408976
H -3.968979 1.960108 3.896460
H -4.896829 1.815668 2.370126
H -3.720320 3.191918 2.618461
H -3.717729 1.508258 0.399498
H -1.750148 4.210970 -0.735091
H -3.421007 3.561789 -0.672362
H -2.061004 2.566442 -1.378843
H -0.108637 1.042575 1.441909
H 2.200950 -1.651865 0.183355
H 2.154828 1.381346 0.752881
H 2.300544 0.651440 -0.865584
H 4.261270 -0.871459 -1.396131
H 6.688306 -1.187849 -1.062590
H 7.812703 -0.212723 0.919884
H 6.501917 1.084205 2.576466
H 4.076433 1.412179 2.260739
H 0.434019 -2.393688 -1.028465
H -3.925481 0.212713 -1.768521
H -4.467789 -0.706779 -0.287183
H -4.149612 -1.810139 -2.915309
H -4.287991 -2.734730 -1.377962
H -2.120231 -3.479017 -1.665273
H -1.726298 -1.206109 -3.747313
H -2.212456 -2.908393 -4.116039
H -0.583676 -2.571457 -3.430003
