47

C -2.731928 -0.139406 1.968424
C -1.942969 -1.086521 1.055521
C -1.863954 -0.700713 -0.466473
C -3.269300 -0.486877 -1.004044
C -3.802732 0.746325 -1.116931
C -2.995458 2.007979 -0.865534
N -1.730034 1.729206 -0.150914
C -0.905890 2.950435 0.044403
C 0.496533 2.853474 -0.569019
C 1.130575 1.532228 -0.229961
C 0.392696 0.417350 -0.351953
C -1.046924 0.571695 -0.768284
N 0.998304 -0.899238 -0.283515
C 2.331162 -1.020226 0.280222
C 2.878707 -2.272293 0.643707
C 4.156773 -2.357220 1.200480
C 4.911415 -1.203801 1.402283
C 4.390679 0.039677 1.047232
C 3.103141 0.141260 0.496735
C 2.604292 1.493297 0.069806
C 0.270528 -2.110110 -0.746467
O 1.006951 -2.726352 -1.771560
C -1.172823 -1.837967 -1.246752
H -2.190773 0.816146 2.116225
H -3.751541 0.052677 1.578050
H -2.839471 -0.609872 2.968592
H -2.416891 -2.089709 1.137972
H -0.927854 -1.181357 1.493110
H -3.896959 -1.349864 -1.207938
H -4.822432 0.847509 -1.475167
H -3.615819 2.699660 -0.256138
H -2.786870 2.492276 -1.845423
H -1.404458 3.860628 -0.359153
H -0.794997 3.112303 1.138027
H 1.120897 3.697820 -0.204409
H 0.416782 2.939560 -1.674510
H -1.015108 0.727549 -1.874959
H 2.333055 -3.193801 0.508133
H 4.563529 -3.322080 1.475057
H 5.903606 -1.273730 1.829154
H 4.993516 0.927220 1.196578
H 3.159024 1.804085 -0.841178
H 2.819110 2.228863 0.875251
H 0.176463 -2.807596 0.117646
H 0.677642 -3.660614 -1.840857
H -1.766150 -2.775708 -1.160382
H -1.144043 -1.584167 -2.331083
