42

C -4.813286 2.429331 0.675089
C -3.503710 1.763458 0.226943
O -3.181720 2.189607 -1.071242
C -3.514544 0.234721 0.256433
C -4.730768 -0.480057 0.250910
N -4.741651 -1.834499 0.289267
C -3.602040 -2.564136 0.315687
C -2.351698 -1.928036 0.277869
C -1.155396 -2.675602 0.278781
O -1.211822 -3.935434 0.362664
N 0.063166 -2.047646 0.195144
C 0.128118 -0.672046 0.148725
C -1.040327 0.099545 0.154630
C -2.301736 -0.515577 0.232913
C 1.450120 -0.032559 0.028062
N 1.749652 1.287965 0.088685
C 3.075236 1.355060 -0.148874
C 3.862843 2.503075 -0.222516
C 5.229711 2.345509 -0.519093
C 5.772644 1.059350 -0.739539
C 4.955356 -0.083337 -0.662884
C 3.608852 0.104226 -0.357515
C 2.568639 -0.786962 -0.224056
C 2.503553 -2.252951 -0.475433
C 1.311916 -2.856236 0.299427
H -5.142407 2.020788 1.654471
H -4.653442 3.522239 0.793700
H -5.611138 2.285140 -0.083954
H -2.732300 2.115173 0.950018
H -2.831901 3.115713 -0.993080
H -5.683667 0.025868 0.222509
H -3.680327 -3.643327 0.348896
H -0.951744 1.170427 0.068800
H 1.105907 2.090479 0.264625
H 3.437121 3.485180 -0.062424
H 5.868656 3.216564 -0.583667
H 6.824324 0.952492 -0.971258
H 5.361445 -1.071797 -0.834154
H 2.364127 -2.423152 -1.564415
H 3.448357 -2.739746 -0.152268
H 1.587779 -2.943157 1.373080
H 1.158099 -3.885655 -0.090955
