46

C 0.683570 -2.153051 1.677303
C 0.110348 -0.943028 1.628369
C 0.304946 0.063653 0.493086
C 0.618271 -0.600809 -0.878264
C 1.444982 1.060742 0.870072
C 2.764154 0.487334 1.443195
C 3.629134 -0.186333 0.411246
C 4.485176 0.452461 -0.413573
C 4.725539 1.940718 -0.307178
C 5.299568 -0.339327 -1.368893
O 6.217732 0.213085 -2.033016
O 5.059879 -1.700375 -1.546241
O -0.867943 0.872812 0.381364
C -2.040786 0.177484 -0.024161
O -2.228636 0.376812 -1.413815
C -3.235934 -0.493318 -1.909409
C -4.535791 -0.474702 -1.063622
O -4.628526 -1.668431 -0.326344
C -4.530958 0.738259 -0.116560
O -5.688536 0.734035 0.679185
C -3.246988 0.757044 0.753501
O -3.431527 0.009981 1.930856
H 0.502880 -2.798863 2.530267
H 1.337365 -2.513697 0.892626
H -0.510222 -0.642576 2.468114
H -0.125868 -1.385701 -1.126655
H 0.600250 0.164324 -1.683444
H 1.608297 -1.087549 -0.900693
H 1.044873 1.745026 1.651721
H 1.662622 1.707778 -0.005694
H 3.337420 1.307536 1.926137
H 2.551799 -0.229441 2.261676
H 3.564885 -1.267099 0.376971
H 5.207748 2.338885 -1.223960
H 3.779283 2.500972 -0.179679
H 5.389087 2.146464 0.558650
H 5.611807 -2.245674 -2.197597
H -1.979440 -0.916434 0.200174
H -3.482029 -0.165114 -2.941707
H -2.832091 -1.526745 -1.998941
H -5.407718 -0.393580 -1.755525
H -5.585342 -1.791250 -0.091794
H -4.536121 1.653123 -0.756441
H -5.762149 1.639926 1.079026
H -3.029861 1.821853 1.011768
H -3.855147 0.612789 2.596330
