72

C 4.292985 4.120454 -0.616876
O 4.934175 3.071267 0.103036
C 5.105975 1.763673 -0.381568
C 4.592412 1.355786 -1.628852
C 4.849115 0.073360 -2.114172
C 5.584921 -0.845787 -1.347544
C 5.992103 -2.162661 -1.897708
C 5.254136 -2.941285 -2.701275
C 3.809588 -2.779422 -2.938996
O 3.311032 -3.216238 -4.013278
O 2.988291 -2.232400 -1.947975
C 1.576762 -2.101638 -2.103070
C 0.901098 -1.911995 -0.735978
O -0.433205 -1.483606 -0.994767
C -1.308039 -1.676369 0.103654
O -0.792841 -1.028061 1.261329
C -1.828902 -0.618836 2.136788
C -2.257822 0.784920 1.812185
C -3.431143 1.138770 1.258179
C -3.789952 2.553047 0.935778
C -5.180163 2.459200 0.244179
C -6.233661 3.319383 0.915443
C -7.463982 3.530217 0.390703
C -7.887755 2.914912 -0.922715
C -8.444865 4.428248 1.108865
O -5.559531 1.085117 0.311062
C -4.561735 0.312950 0.861007
O -4.659011 -0.935199 0.975859
C -1.535024 -3.195600 0.356885
O -2.629285 -3.649667 -0.403022
C -0.290817 -4.030039 -0.026608
O -0.218651 -5.180959 0.776838
C 0.980622 -3.198775 0.152847
O 2.113693 -3.971971 -0.156813
C 6.071479 -0.449772 -0.092555
C 5.836714 0.852310 0.397560
O 6.336955 1.289646 1.636672
C 7.021806 0.460989 2.567406
H 4.369114 5.060695 -0.031335
H 3.219239 3.878636 -0.766715
H 4.789188 4.271458 -1.598470
H 4.026330 2.038216 -2.248542
H 4.504575 -0.181168 -3.107020
H 7.003794 -2.489628 -1.681316
H 5.734529 -3.801575 -3.155618
H 1.152897 -3.003539 -2.596520
H 1.375321 -1.221284 -2.745766
H 1.441250 -1.092105 -0.214727
H -2.276116 -1.217058 -0.203754
H -2.670070 -1.340785 2.194084
H -1.405924 -0.597987 3.165835
H -1.532297 1.566487 2.013184
H -3.812081 3.151886 1.875133
H -3.039000 2.988870 0.236548
H -5.063535 2.759184 -0.822669
H -5.979090 3.807082 1.851275
H -8.919686 3.227475 -1.196823
H -7.883306 1.811429 -0.832919
H -7.203331 3.228711 -1.736382
H -8.086402 4.712853 2.123603
H -8.603878 5.355429 0.515753
H -9.420052 3.903863 1.231866
H -1.744193 -3.357776 1.444800
H -3.448597 -3.400237 0.098508
H -0.352593 -4.327197 -1.101282
H -0.864088 -5.831145 0.394721
H 1.042608 -2.879323 1.217208
H 2.312657 -4.531622 0.642556
H 6.663723 -1.148985 0.485693
H 6.366580 -0.376710 2.889312
H 7.954288 0.068919 2.113455
H 7.300666 1.062961 3.459174
