45

O 2.161579 0.568356 -2.379532
C 2.527894 1.420247 -1.328480
C 2.954978 0.616750 -0.130743
C 4.057751 -0.123270 -0.096420
C 4.218582 -0.825008 1.206719
C 3.191503 -0.133557 2.111398
C 2.590969 -1.067968 3.133231
C 1.279820 -1.304283 3.179784
O 0.425957 -0.775988 2.209944
C 0.917296 -0.342710 0.944181
O -0.078752 0.434886 0.300753
C -0.839021 -0.323863 -0.627194
O -1.470393 0.571212 -1.535426
C -2.642241 1.136168 -0.975285
C -3.073563 2.339911 -1.822968
O -2.065123 3.314120 -1.838085
C -3.765549 0.064132 -0.917642
O -4.712309 0.395259 0.068708
C -3.183683 -1.355717 -0.676046
O -2.955543 -1.993988 -1.908249
C -1.858192 -1.258850 0.104611
O -1.314282 -2.533578 0.346995
C 2.177329 0.523896 1.145712
H 3.002927 0.277889 -2.819162
H 3.348501 2.105803 -1.639894
H 1.652138 2.048442 -1.062784
H 4.741026 -0.232403 -0.932825
H 3.986917 -1.904007 1.069236
H 5.250968 -0.699256 1.597648
H 3.711855 0.679784 2.666252
H 3.235718 -1.505102 3.885469
H 0.867387 -1.902320 3.981609
H 1.215268 -1.252601 0.368048
H -0.171090 -0.944584 -1.267011
H -2.432970 1.520528 0.051741
H -4.019577 2.773071 -1.424338
H -3.261595 2.013410 -2.868282
H -2.100745 3.774235 -0.958990
H -4.304543 0.047641 -1.891097
H -4.259688 0.346873 0.950969
H -3.902002 -1.961640 -0.074137
H -3.836021 -2.321517 -2.229821
H -2.094514 -0.811368 1.095206
H -1.073299 -2.935442 -0.527658
H 1.898331 1.536407 1.513852
