52

C -3.302732 0.400431 2.558309
C -3.843650 0.037229 1.159418
C -5.083361 0.910295 0.873928
C -2.762080 0.131002 0.015900
O -2.541852 1.476779 -0.341661
C -3.284002 -0.577668 -1.229140
C -2.509690 -1.281112 -2.075451
C -1.062117 -1.631383 -1.805772
C -1.006303 -3.116645 -1.382740
O -0.359489 -1.471164 -3.015080
C -0.456153 -0.681588 -0.733448
O 0.784389 -1.199941 -0.274654
C 1.732511 -0.171156 -0.056954
O 2.217898 0.276342 -1.316957
C 3.176911 1.320992 -1.201716
C 2.550111 2.662350 -0.754999
O 1.436786 2.969493 -1.550603
C 4.402695 0.884040 -0.363644
O 5.279153 1.967410 -0.183900
C 3.962588 0.316439 0.998442
O 5.058874 -0.216686 1.700564
C 2.875272 -0.749555 0.797104
O 2.385016 -1.148143 2.051772
C -1.417569 -0.516996 0.455393
H -4.120494 0.362496 3.309608
H -2.536385 -0.329137 2.891858
H -2.868919 1.421804 2.569572
H -4.190425 -1.019228 1.220274
H -5.583619 0.619691 -0.069897
H -5.833505 0.786463 1.684194
H -4.806383 1.984491 0.818394
H -2.145762 1.946634 0.436801
H -4.308538 -0.410643 -1.539702
H -2.975438 -1.703273 -2.962199
H 0.036745 -3.434734 -1.173705
H -1.623288 -3.305063 -0.479840
H -1.394996 -3.759408 -2.202005
H 0.586782 -1.728441 -2.856364
H -0.341084 0.316184 -1.223535
H 1.262755 0.662565 0.514258
H 3.561111 1.502214 -2.229789
H 2.278376 2.660253 0.323567
H 3.297026 3.473223 -0.889254
H 0.647586 2.558467 -1.111704
H 4.921042 0.078943 -0.937781
H 6.164357 1.586477 0.054937
H 3.542445 1.142638 1.612890
H 5.439959 -0.953758 1.154896
H 3.319240 -1.623797 0.263078
H 1.967319 -2.040406 1.928997
H -1.604572 -1.504583 0.928199
H -0.924539 0.119166 1.220989
