50

C 3.003118 -3.033820 -1.858282
O 2.880434 -2.038388 -0.850027
C 2.013126 -0.948413 -0.970477
O 1.311208 -0.807921 -2.010405
C 1.887260 0.019866 0.186583
C 1.690860 1.490043 -0.298097
C 0.357163 2.041645 0.255125
C 0.074812 3.460990 -0.304237
C -1.342049 3.958583 0.037714
C -2.406824 2.961232 -0.429612
N -2.068533 1.624488 0.053306
C -2.669280 0.983448 1.161112
O -3.755068 1.366329 1.672457
C -1.880342 -0.155508 1.673305
C -0.681333 -0.254726 0.659207
C -0.784111 -1.608901 0.029678
C -1.662670 -2.079904 -0.946377
C -1.636635 -3.449556 -1.257242
C -0.760585 -4.319489 -0.575767
C 0.093922 -3.828265 0.425928
C 0.046615 -2.467822 0.726422
N 0.907321 -1.772129 1.627677
C 0.774899 -0.363286 1.258459
C 0.944036 0.668384 2.393874
C 0.494738 2.058493 1.832844
C -0.765788 1.038179 -0.207894
H 3.357079 -2.574091 -2.805167
H 2.022757 -3.528594 -2.024844
H 3.739035 -3.796043 -1.530170
H 2.874209 -0.022255 0.700913
H 2.532718 2.118908 0.069405
H 1.708797 1.569067 -1.407429
H 0.182078 3.452782 -1.411649
H 0.820864 4.182345 0.094375
H -1.516199 4.937410 -0.458631
H -1.436261 4.118295 1.132693
H -2.434839 2.947483 -1.540587
H -3.408739 3.272998 -0.064398
H -1.597144 0.046765 2.718836
H -2.530006 -1.059642 1.684168
H -2.350044 -1.409399 -1.445244
H -2.298726 -3.840486 -2.018712
H -0.744386 -5.371922 -0.827092
H 0.780567 -4.487123 0.940996
H 1.743396 -2.192826 2.090985
H 0.394550 0.395084 3.315503
H 2.010500 0.721411 2.705660
H -0.471581 2.338761 2.300364
H 1.235396 2.828567 2.141025
H -0.680310 0.808952 -1.293062
