59

C -4.509790 2.688121 -0.085293
O -3.301315 1.944781 -0.180234
C -3.061321 0.795429 0.576602
O -3.927784 0.385577 1.395768
N -1.812490 0.097624 0.447288
C -1.590425 -1.311431 0.625716
C -0.253120 -1.651241 0.424794
C 0.174228 -2.994992 0.388235
C -0.793141 -4.014601 0.522764
C -2.135126 -3.640458 0.686243
C -2.530135 -2.335850 0.726152
O -3.904958 -2.274693 0.842552
C -4.405545 -3.617837 0.898599
O -3.244942 -4.455821 0.796069
C 0.515986 -0.355573 0.406230
C 1.019278 -0.208818 1.883003
C 2.367681 -0.988837 1.847325
N 2.772534 -1.026057 0.430456
C 4.202192 -0.857509 0.088435
C 4.676523 0.595760 -0.165811
C 3.624525 1.519516 -0.820156
C 2.252157 1.375423 -0.141783
C 1.167725 2.260378 -0.830715
C -0.242327 2.055634 -0.189295
C -0.604788 0.552710 -0.253752
C -0.843664 0.234381 -1.748015
O -0.392443 -0.821459 -2.272260
O -1.658595 1.081146 -2.508239
C -1.921228 0.861368 -3.888527
C 2.347212 1.900451 1.345139
C 1.353179 1.206577 2.217713
O 0.889725 1.751253 3.208683
C 1.849876 -0.159990 -0.294177
H -4.463145 3.548373 -0.783715
H -5.373326 2.046262 -0.361751
H -4.640556 3.069903 0.949694
H 1.216703 -3.247639 0.253642
H -0.508670 -5.057973 0.490042
H -4.920880 -3.794244 1.866008
H -5.090666 -3.805998 0.045601
H 0.324478 -0.625944 2.648912
H 2.205041 -2.028499 2.200294
H 3.155823 -0.541527 2.495045
H 4.388782 -1.437784 -0.840284
H 4.837988 -1.322221 0.872985
H 5.053230 1.030936 0.780935
H 5.565577 0.561025 -0.831950
H 3.974229 2.573512 -0.760549
H 3.539025 1.258380 -1.898355
H 1.441871 3.335876 -0.764567
H 1.126384 2.021752 -1.915892
H -0.967089 2.674267 -0.758517
H -0.302903 2.448682 0.842613
H -2.383400 -0.139006 -4.035467
H -2.623845 1.638071 -4.254446
H -0.974902 0.927781 -4.467594
H 2.184748 3.000150 1.397093
H 3.335107 1.741991 1.810563
H 1.820708 -0.467088 -1.359850
