51

O 4.942431 2.160472 -1.729559
C 3.627335 1.673292 -1.714601
C 3.307840 0.994877 -0.374834
O 1.968204 0.544505 -0.406989
C 1.504945 0.225749 0.901516
O 0.277729 -0.477401 0.807149
C -0.749677 0.321788 0.235977
O -0.627728 0.355870 -1.178042
C -0.869247 -0.886784 -1.836155
Cl 0.621793 -1.392181 -2.672573
C -1.390469 -2.050988 -0.964693
C -2.447218 -1.592729 0.052743
C -3.851957 -1.487121 -0.539894
C -4.508196 -0.348275 0.221162
O -5.607921 0.151133 -0.496112
C -3.381207 0.691805 0.433851
O -3.631095 1.444889 1.598297
C -3.269583 1.652545 -0.789894
O -2.354242 2.683031 -0.538185
C -2.131320 -0.219299 0.677487
C 2.511767 -0.670412 1.688293
O 3.182441 0.088825 2.662823
C 3.547119 -1.294951 0.738943
O 2.893124 -2.204225 -0.110780
C 4.258173 -0.200387 -0.099915
O 5.393992 0.266805 0.583057
H 4.948990 2.977792 -1.165998
H 2.909295 2.505754 -1.894674
H 3.504562 0.944556 -2.544480
H 3.431234 1.770144 0.419892
H 1.349443 1.168474 1.478945
H -0.683719 1.362156 0.623611
H -1.620759 -0.699774 -2.631375
H -0.540225 -2.508472 -0.413148
H -1.806997 -2.850810 -1.615672
H -2.483792 -2.355099 0.865119
H -3.811667 -1.240906 -1.624140
H -4.418672 -2.434766 -0.408560
H -4.847654 -0.743375 1.209523
H -6.140623 0.692114 0.142929
H -4.487052 1.930937 1.467560
H -4.257315 2.123876 -0.987895
H -2.985597 1.094313 -1.706657
H -2.287940 3.207176 -1.378337
H -2.058665 -0.378750 1.779249
H 1.968800 -1.503620 2.195761
H 2.539206 0.234696 3.405119
H 4.295855 -1.848887 1.353798
H 3.592008 -2.799981 -0.488333
H 4.576094 -0.652740 -1.069927
H 6.098157 -0.425641 0.479574
