73

C 1.601609 6.136901 2.466969
O 0.729787 5.110534 2.006358
C 1.139538 4.118581 1.107684
O 2.326128 4.108003 0.676237
C 0.178816 3.081791 0.655536
C -1.106955 3.150182 1.035188
O -2.043931 2.205400 0.610896
C -1.680736 0.997615 -0.053308
O -2.794858 0.549679 -0.808309
C -3.466915 -0.511285 -0.159557
O -4.017935 -0.048713 1.065892
C -4.669769 -1.074746 1.805976
C -3.679199 -2.015873 2.533779
O -3.172785 -3.021078 1.697810
C -5.799391 -1.791810 1.009734
O -6.927720 -0.952878 0.937146
C -5.341836 -2.172757 -0.416013
O -6.414365 -2.630149 -1.204333
C -4.571961 -1.027247 -1.100772
O -5.430365 0.007360 -1.521940
C -0.491781 1.254538 -1.005618
C 0.662062 1.942191 -0.231662
C 1.496677 0.942948 0.596275
C 1.742430 -0.423036 -0.098579
C 3.169273 -0.861835 0.071026
N 3.750140 -1.241875 1.232282
C 5.030784 -1.514438 0.913042
C 6.035924 -1.967971 1.765769
C 7.307924 -2.211085 1.213811
C 7.543920 -2.001861 -0.164138
C 6.511835 -1.543834 -1.003250
C 5.265769 -1.305382 -0.426370
C 4.077033 -0.868874 -0.968382
C 3.710908 -0.593954 -2.389174
C 2.387096 0.190429 -2.441097
N 1.372654 -0.427930 -1.538533
C -0.057719 -0.069346 -1.730754
C -0.508086 -0.088671 -3.208166
O -0.112384 -1.278998 -3.835737
H 1.044316 6.808178 3.151856
H 1.977486 6.731237 1.607484
H 2.453949 5.687975 3.019170
H -1.459394 3.962302 1.658398
H -1.343172 0.267908 0.723794
H -2.746641 -1.342997 0.008608
H -5.183135 -0.546167 2.639941
H -2.827060 -1.416303 2.918632
H -4.182394 -2.466922 3.420405
H -3.755032 -3.816630 1.814163
H -6.084840 -2.732805 1.539333
H -7.390950 -1.008700 1.813817
H -4.638001 -3.027098 -0.329184
H -7.041570 -1.875712 -1.348819
H -4.082639 -1.440998 -2.009738
H -5.702379 0.535483 -0.727339
H -0.839688 1.991270 -1.766179
H 1.313332 2.415639 -0.988343
H 0.982354 0.747803 1.562991
H 2.463998 1.428278 0.852250
H 1.114519 -1.187917 0.413982
H 3.298881 -1.315158 2.171586
H 5.843560 -2.136419 2.817473
H 8.108344 -2.570278 1.847456
H 8.525887 -2.196970 -0.577285
H 6.683132 -1.378992 -2.059322
H 3.588482 -1.563483 -2.919150
H 4.516764 -0.009758 -2.884902
H 2.055723 0.178104 -3.498079
H 2.599045 1.239836 -2.169503
H -0.627467 -0.909731 -1.273309
H -1.615656 0.014019 -3.263557
H -0.082795 0.775253 -3.759956
H -0.718578 -1.990771 -3.502388
