50

C -1.202186 1.334437 -2.377060
C -1.919711 0.264561 -1.544993
C -1.677169 0.238285 0.019217
C -3.049528 -0.065845 0.708159
C -3.543920 -1.509249 0.422635
C -2.477046 -2.571376 0.774836
N -1.202136 -2.263231 0.096885
C -0.055187 -3.085846 0.561226
C 1.164331 -2.129844 0.751101
C 0.676388 -0.833058 0.103491
C 1.068640 -0.853643 -1.355489
O 0.695744 -1.691604 -2.219939
C 2.069769 0.166623 -1.559177
C 2.831298 0.472867 -2.685521
C 3.726433 1.551770 -2.602879
C 3.834987 2.295415 -1.410250
C 3.045711 1.967773 -0.294154
C 2.162868 0.887744 -0.395451
N 1.243227 0.436620 0.608583
C 0.378893 1.422092 1.310603
O 0.197990 1.031165 2.660707
C 1.376974 1.263618 3.401057
C -1.034542 1.565507 0.622297
C -0.776826 -0.925204 0.462310
H -0.145625 1.454345 -2.085820
H -1.718714 2.312172 -2.272031
H -1.236158 1.052085 -3.450573
H -1.686916 -0.728479 -1.981206
H -3.000128 0.409936 -1.764238
H -3.820683 0.664281 0.378713
H -2.959894 0.051040 1.811810
H -3.816423 -1.609091 -0.649670
H -4.461451 -1.704095 1.018269
H -2.350437 -2.606288 1.881454
H -2.836500 -3.568167 0.440652
H 0.179210 -3.845034 -0.214881
H -0.269795 -3.614213 1.517510
H 2.086817 -2.538242 0.281026
H 1.358696 -1.968376 1.835248
H 2.735589 -0.101727 -3.597574
H 4.334279 1.814019 -3.458968
H 4.527349 3.125290 -1.354469
H 3.129007 2.537598 0.621793
H 0.840901 2.436840 1.272167
H 1.215895 0.910121 4.439940
H 2.239272 0.697057 2.985573
H 1.612371 2.349638 3.449157
H -0.961973 2.373164 -0.126352
H -1.721729 2.004436 1.378326
H -0.807961 -0.877885 1.585950
