30

C 4.502580 1.528988 0.315601
C 3.885531 0.171964 0.208990
O 4.618804 -0.828283 -0.020303
C 2.426892 0.019510 0.364471
C 1.822306 -1.172485 0.305198
C 0.364863 -1.337122 0.486079
C -0.109200 -2.390414 1.290065
N -1.449105 -2.597353 1.443422
C -2.372460 -1.814885 0.820930
C -1.935960 -0.775106 0.000901
C -0.593575 -0.536517 -0.166997
C -0.366194 0.559912 -1.148277
C -1.760826 0.829972 -1.740041
C -2.783754 0.128070 -0.819988
C -3.534399 1.125861 0.067610
H 4.091934 2.188721 -0.477243
H 5.605271 1.467816 0.195918
H 4.274424 1.966463 1.310125
H 1.846267 0.908631 0.568157
H 2.419212 -2.071414 0.204975
H 0.587002 -3.044602 1.799622
H -3.428189 -2.013376 0.949381
H -0.004728 1.470124 -0.626112
H 0.352183 0.249639 -1.937393
H -1.947968 1.922515 -1.834202
H -1.817654 0.382087 -2.756801
H -3.508844 -0.463245 -1.421571
H -2.823142 1.723285 0.678574
H -4.133677 1.815492 -0.563849
H -4.227596 0.585753 0.747079
