53

C -0.481593 4.069525 2.018198
O -0.323692 3.085103 1.004270
C -0.386453 1.711893 1.268146
O -0.542173 1.307063 2.454099
C -0.161829 0.710528 0.146368
C -0.626107 1.300452 -1.241939
C -1.450817 0.255315 -2.025736
C -0.664163 -1.078002 -1.996415
N -0.668159 -1.629305 -0.618947
C 0.429370 -2.577220 -0.323523
C 1.483700 -2.068290 0.668558
C 2.042286 -0.735495 0.272230
C 1.345225 0.468819 0.091345
N 2.224671 1.470822 -0.166897
C 3.448474 0.922377 -0.150415
C 4.663822 1.574120 -0.355668
C 5.841355 0.810062 -0.279452
C 5.778317 -0.571970 -0.000006
C 4.537430 -1.202151 0.204450
C 3.382483 -0.419055 0.117761
C -1.001088 -0.607135 0.405390
C -2.521384 -0.285457 0.226829
C -3.428136 -1.382720 0.856916
C -4.897632 -0.952400 0.901917
O -3.320603 -2.601406 0.164883
C -2.802420 0.051725 -1.285097
O -3.540172 -0.960841 -1.922694
H -1.481388 3.970271 2.491483
H -0.397068 5.077648 1.563351
H 0.311627 3.953671 2.786826
H 0.233911 1.615605 -1.872866
H -1.255371 2.208591 -1.114527
H -1.617643 0.594235 -3.071571
H -1.140851 -1.810974 -2.681678
H 0.374948 -0.903087 -2.356887
H 0.941524 -2.896858 -1.258838
H -0.021107 -3.497241 0.105118
H 2.293669 -2.824733 0.712173
H 1.076044 -2.009627 1.698229
H 2.000038 2.475858 -0.342115
H 4.701453 2.635392 -0.564872
H 6.801501 1.284881 -0.433828
H 6.690924 -1.150744 0.058258
H 4.493802 -2.260903 0.418983
H -0.841432 -0.996147 1.432481
H -2.733814 0.638262 0.809920
H -3.116929 -1.522540 1.920364
H -5.310766 -0.811742 -0.117630
H -5.004026 -0.002307 1.467583
H -5.498262 -1.732187 1.416526
H -2.598780 -3.124508 0.601377
H -3.387021 1.001336 -1.327090
H -3.875696 -0.578508 -2.775337
