85

C -4.693511 0.056304 1.212669
C -4.297149 -0.748211 0.210929
C -3.270054 -0.235292 -0.772226
O -2.032278 -0.105824 -0.104963
C -1.036334 0.382240 -0.991038
O -1.264234 1.738646 -1.350981
C -1.276633 2.590408 -0.215575
C -1.662518 3.999866 -0.696716
O -1.935254 4.878148 0.394393
C -3.112824 4.830111 1.149011
O -4.001010 3.966471 0.910839
C -3.343609 5.856748 2.211805
C -4.231408 6.956183 1.712579
O -4.099042 7.407662 0.541980
O -5.164940 7.529775 2.573012
C 0.103069 2.586683 0.488274
O 0.046797 3.383591 1.645050
C 0.478616 1.140711 0.871402
O 1.790810 1.094352 1.371711
C 0.353769 0.213332 -0.355169
O 1.332361 0.546290 -1.329231
C 2.524840 -0.210840 -1.200605
O 3.607261 0.696209 -1.078282
C 4.792412 0.009635 -0.700105
C 5.950873 1.018906 -0.701107
O 7.154970 0.410358 -0.242089
C 7.397490 0.103935 1.101436
O 6.651402 0.559306 2.011697
C 8.583699 -0.738983 1.457252
C 8.213570 -1.836116 2.408235
O 7.195017 -2.550133 2.196585
O 9.020012 -2.090972 3.514299
C 5.099457 -1.208521 -1.633496
O 4.888334 -2.412028 -0.938384
C 4.190933 -1.185222 -2.879792
O 4.528668 -0.089088 -3.697499
C 2.703097 -1.078008 -2.475916
O 2.184270 -2.364675 -2.255508
C -4.873226 -2.152351 0.089133
C -5.732290 -2.295279 -1.181099
C -6.141619 -3.723643 -1.438691
C -5.475593 -4.784468 -0.930754
C -5.922917 -6.171528 -1.299619
C -4.372567 -4.620974 0.098298
C -3.762412 -3.215343 0.097070
H -5.425486 -0.272351 1.942104
H -4.287087 1.059858 1.317844
H -3.176927 -0.932867 -1.633616
H -3.619483 0.746996 -1.163973
H -1.024509 -0.223622 -1.927659
H -2.056868 2.260447 0.504594
H -0.835274 4.426713 -1.301185
H -2.555473 3.943807 -1.357213
H -3.809292 5.369121 3.096239
H -2.372732 6.291872 2.529363
H -5.763827 8.284105 2.256006
H 0.867290 2.989597 -0.219256
H 0.980777 3.621318 1.873898
H -0.232009 0.778401 1.653151
H 1.742163 1.307693 2.341045
H 0.414556 -0.851751 -0.025668
H 2.517833 -0.889767 -0.310312
H 4.678361 -0.343196 0.351257
H 5.697655 1.894033 -0.065838
H 6.113802 1.390131 -1.734111
H 9.003965 -1.195567 0.534758
H 9.363016 -0.091099 1.911649
H 8.791862 -2.835995 4.161009
H 6.157753 -1.187022 -1.991362
H 5.656083 -2.520899 -0.318445
H 4.340482 -2.126849 -3.460690
H 5.400374 -0.304084 -4.122626
H 2.153778 -0.614422 -3.326788
H 1.200981 -2.272276 -2.171562
H -5.536516 -2.359610 0.964028
H -5.175639 -1.938198 -2.074943
H -6.648490 -1.670396 -1.077183
H -6.945757 -3.889988 -2.152848
H -5.797658 -6.329417 -2.392471
H -5.321269 -6.938421 -0.767226
H -6.990501 -6.310974 -1.028089
H -4.794279 -4.841243 1.105092
H -3.563479 -5.359117 -0.100111
H -3.131810 -3.097043 1.005691
H -3.106672 -3.106287 -0.797479
