73

C -1.087633 2.404452 1.529563
C -0.818402 1.247399 0.918343
C -0.910483 1.105406 -0.586233
C -2.374372 0.830494 -0.975783
O -2.815853 -0.357377 -0.334031
C -4.161437 -0.249649 0.082022
O -4.230320 0.598171 1.217345
C -5.573346 0.902641 1.580647
C -6.074474 2.133221 0.802306
O -7.268547 2.619435 1.353935
C -6.542673 -0.313002 1.468713
O -7.484874 -0.271961 2.511568
C -5.737373 -1.617235 1.557333
O -6.591207 -2.731041 1.467182
C -4.675011 -1.667358 0.436423
O -5.212675 -2.272871 -0.712691
O -2.469242 0.658534 -2.386672
C -1.477696 0.017090 -3.135761
C -0.276908 -0.281341 -2.612638
C 0.655146 -1.036659 -3.461294
O 1.694620 -0.485442 -3.911056
O 0.356558 -2.348567 -3.812373
C 0.009945 -0.029816 -1.128323
C 1.511285 0.301784 -0.848393
C 2.433501 -0.939187 -0.690490
N 1.850415 -1.934450 0.234104
C 2.042571 -1.578333 1.645657
C 3.525628 -1.571802 2.008129
C 4.327039 -0.767826 1.020062
C 5.619852 -0.354805 1.369549
C 6.427887 0.336973 0.449304
O 7.722690 0.772909 0.774064
C 8.353723 0.560386 2.033040
C 5.940719 0.602110 -0.838564
O 6.771112 1.294077 -1.734597
C 6.419918 1.621555 -3.075190
C 4.649810 0.171126 -1.195763
C 3.838446 -0.516628 -0.278626
H -1.037634 2.470367 2.611670
H -1.356283 3.290108 0.960950
H -0.579680 0.378183 1.525539
H -0.593122 2.061415 -1.062895
H -2.975854 1.730194 -0.698622
H -4.784638 0.154536 -0.753093
H -5.531472 1.197074 2.653443
H -5.296334 2.929726 0.817643
H -6.258555 1.869606 -0.260709
H -7.019632 3.117601 2.176450
H -7.061638 -0.303939 0.479621
H -8.259216 0.254921 2.186145
H -5.202438 -1.636492 2.537335
H -7.003391 -2.852670 2.362078
H -3.828392 -2.288384 0.814662
H -4.446134 -2.503774 -1.299672
H -1.693412 -0.217997 -4.171622
H 0.977496 -2.878942 -4.411632
H -0.270801 -0.959868 -0.588151
H 1.897523 0.955950 -1.660407
H 1.607148 0.906923 0.076724
H 2.529727 -1.428952 -1.680522
H 2.299502 -2.864551 0.057544
H 1.515506 -2.320335 2.283030
H 1.596472 -0.585959 1.861985
H 3.909565 -2.615822 2.013679
H 3.643147 -1.152925 3.031852
H 5.992506 -0.585231 2.358682
H 7.762274 1.036257 2.842510
H 8.457350 -0.528047 2.228027
H 9.365557 1.016128 2.013972
H 5.518194 2.267832 -3.088373
H 6.232181 0.695383 -3.658984
H 7.259619 2.174861 -3.545402
H 4.266520 0.364410 -2.188078
