46

C -1.622288 1.645825 2.343555
C -0.983872 0.368925 1.775932
C -1.349524 0.027015 0.285106
C -2.870883 -0.373704 0.262310
C -3.382504 -0.844925 -1.114296
C -2.538871 -1.990725 -1.669190
N -1.128163 -1.670650 -1.496435
C -0.105137 -1.763377 -2.466214
O -0.280427 -2.141328 -3.654397
C 1.147547 -1.347832 -1.897134
C 0.929863 -1.011511 -0.623195
C 2.025781 -0.501656 0.236943
C 2.438139 -1.232894 1.365567
C 3.523836 -0.804273 2.132559
C 4.236581 0.335553 1.762852
C 3.871011 1.046557 0.619591
C 2.766683 0.644888 -0.144464
N 2.441563 1.386164 -1.329862
C 1.128111 1.886296 -1.614855
O 0.836276 2.208415 -2.797681
C 0.123491 2.121602 -0.521021
C -1.160639 1.266419 -0.674330
C -0.540114 -1.240022 -0.229642
O -0.648062 -2.326889 0.660933
H -1.252433 1.804793 3.378489
H -2.725557 1.553278 2.395510
H -1.357347 2.544070 1.752963
H -1.314075 -0.455526 2.443409
H 0.113269 0.436002 1.907840
H -3.506877 0.481447 0.572660
H -3.057401 -1.190283 0.994922
H -4.436082 -1.184988 -1.016413
H -3.378886 0.002265 -1.832326
H -2.777766 -2.144197 -2.743447
H -2.769855 -2.927718 -1.118360
H 2.096713 -1.292780 -2.415163
H 1.965716 -2.166278 1.630654
H 3.830236 -1.373631 3.000643
H 5.085790 0.657293 2.351754
H 4.443171 1.919015 0.329774
H 3.215181 1.630095 -1.988589
H -0.164176 3.194054 -0.581513
H 0.601506 2.016101 0.467631
H -2.017241 1.958302 -0.514143
H -1.260807 0.945817 -1.733021
H -0.191477 -2.095007 1.504094
