75

C 1.534483 1.983418 1.685231
C 1.199329 0.845425 1.068865
C 0.692181 0.751880 -0.361979
C 1.740609 1.190389 -1.410622
O 3.022645 0.652958 -1.135065
C 3.115592 -0.728926 -1.457800
O 3.077081 -1.504861 -0.262285
C 4.333722 -1.653240 0.388275
C 4.834993 -0.327420 0.997093
O 5.861865 -0.583833 1.914984
C 5.395532 -2.361241 -0.506463
O 5.541466 -3.695537 -0.087344
C 4.997037 -2.333969 -1.995009
O 6.126602 -2.543007 -2.803007
C 4.378562 -0.971861 -2.326123
O 4.074643 -0.868051 -3.696913
O 1.840791 2.610220 -1.434525
C 0.736201 3.453286 -1.273082
C -0.446345 2.996247 -0.823172
C -1.558288 3.967116 -0.703938
O -1.759014 4.801389 -1.629584
O -2.346186 3.998471 0.450796
C -3.421739 4.912387 0.622136
C -0.655546 1.490935 -0.620058
C -1.744641 1.149030 0.435362
C -2.027671 -0.364865 0.611302
C -3.178290 -0.561268 1.580114
C -2.969919 -0.325055 2.949485
C -4.019336 -0.443510 3.864173
O -3.770605 -0.197406 5.214050
C -5.299232 -0.803955 3.415887
O -6.349021 -0.926368 4.325261
C -5.517069 -1.043749 2.053330
C -4.472259 -0.914598 1.125675
C -4.736316 -1.280647 -0.317341
C -3.663936 -0.744832 -1.263601
N -2.341044 -0.995939 -0.683214
C -1.469686 -2.000124 -1.242478
C -1.340295 -2.174441 -2.722897
O -0.808148 -2.756605 -0.481227
H 1.892475 1.951439 2.708250
H 1.467695 2.946535 1.200435
H 1.298241 -0.080831 1.627635
H 0.514486 -0.324171 -0.548965
H 1.391977 0.886725 -2.425966
H 2.249765 -1.089372 -2.062226
H 4.139628 -2.315085 1.262524
H 3.991462 0.173145 1.520798
H 5.213584 0.352231 0.204172
H 6.096934 0.291314 2.319184
H 6.372698 -1.831723 -0.392858
H 6.442692 -3.996463 -0.378472
H 4.235090 -3.126722 -2.193939
H 6.301132 -3.520457 -2.806633
H 5.135389 -0.188007 -2.098350
H 3.472641 -1.622505 -3.934071
H 0.873864 4.509137 -1.473151
H -3.912902 4.719287 1.598159
H -4.168901 4.777067 -0.189411
H -3.038004 5.954908 0.610543
H -1.039288 1.120308 -1.596889
H -2.699060 1.626790 0.133393
H -1.453068 1.586604 1.415075
H -1.130754 -0.840652 1.063146
H -1.987370 -0.041718 3.307763
H -4.497171 -0.268398 5.916316
H -7.281761 -1.189548 4.028760
H -6.502860 -1.339210 1.715758
H -5.726617 -0.887733 -0.636292
H -4.762943 -2.389166 -0.395807
H -3.778368 -1.232848 -2.253955
H -3.809972 0.345040 -1.417429
H -1.456295 -1.194552 -3.232518
H -2.116915 -2.879721 -3.085444
H -0.336254 -2.579492 -2.973830
