28

C 2.176065 1.515772 0.718206
C 2.030010 0.351807 -0.215160
C 2.988652 -0.061824 -1.036485
C 2.411537 -1.097247 -1.857685
O 3.013582 -1.733157 -2.761188
O 1.085582 -1.293278 -1.525572
C 0.740023 -0.402892 -0.466354
C 0.255833 -1.190658 0.745007
C -1.235434 -1.132169 0.581007
O -1.896758 -1.177063 1.820131
C -1.442943 0.205685 -0.155772
C -2.633671 0.109120 -1.121600
C -1.670218 1.381333 0.816995
O -0.274068 0.477405 -0.903847
H 1.531676 2.349881 0.370917
H 3.229128 1.867923 0.753627
H 1.870695 1.225497 1.743558
H 3.993055 0.336267 -1.103371
H 0.627758 -2.238863 0.742934
H 0.553406 -0.699543 1.696783
H -1.561169 -1.987085 -0.059459
H -1.821864 -2.111754 2.146188
H -2.451028 -0.679074 -1.883377
H -2.779248 1.073095 -1.654928
H -3.565385 -0.137965 -0.568398
H -1.707625 2.340215 0.256753
H -2.627307 1.262528 1.368977
H -0.840282 1.446042 1.552113
