68

C -4.628378 2.196722 -2.920102
C -5.328964 1.736626 -1.665053
C -4.656918 1.180367 -0.618680
C -3.184742 0.998818 -0.678480
O -2.438751 1.968262 -0.989588
O -2.631320 -0.247899 -0.371522
C -1.227136 -0.481302 -0.281707
O -0.720860 0.300120 0.797184
C 0.584541 -0.078013 1.210652
C 1.639659 0.189905 0.117822
O 2.933604 0.093162 0.680764
C 3.938384 0.275780 -0.304908
O 4.924093 1.132716 0.258330
C 6.100701 1.151303 -0.529684
C 6.972905 2.335336 -0.095935
O 7.264020 2.252816 1.272623
C 6.861733 -0.200283 -0.402183
O 7.507865 -0.494095 -1.615357
C 5.891570 -1.350266 -0.053626
O 5.734665 -1.420735 1.342537
C 4.526726 -1.108935 -0.727934
O 3.636155 -2.152454 -0.421710
C 0.625099 -1.530631 1.770442
O 0.688546 -1.490269 3.174291
C -0.623083 -2.329094 1.338624
O -0.425183 -3.709793 1.522293
C -0.968731 -2.007352 -0.119362
O -2.087812 -2.761199 -0.514051
C -5.443660 0.597352 0.570146
C -4.617485 0.649538 1.878305
C -5.809760 -0.871509 0.267210
C -6.739526 1.423427 0.803514
C -7.474092 1.688618 -0.475359
C -6.802378 1.891511 -1.607525
H -4.083723 3.143747 -2.720696
H -3.917035 1.421985 -3.276524
H -5.353771 2.381522 -3.740855
H -0.765512 -0.142890 -1.236503
H 0.848863 0.610435 2.043790
H 1.473911 1.218970 -0.275471
H 1.522161 -0.539690 -0.713664
H 3.543626 0.780582 -1.223136
H 5.837630 1.328864 -1.600205
H 6.423134 3.280849 -0.300349
H 7.916115 2.344731 -0.686453
H 7.844589 3.031022 1.478442
H 7.623586 -0.150068 0.412214
H 8.325082 0.069471 -1.650145
H 6.325542 -2.309244 -0.425256
H 5.396068 -2.330679 1.550545
H 4.687529 -1.087079 -1.832448
H 3.934449 -2.946662 -0.937528
H 1.537168 -2.042630 1.381791
H 1.005592 -2.381367 3.475465
H -1.484035 -2.021843 1.974882
H 0.309969 -3.994784 0.918135
H -0.096457 -2.296179 -0.752733
H -2.128597 -2.712039 -1.504815
H -3.759086 -0.052733 1.852687
H -4.229284 1.676824 2.052472
H -5.247097 0.363337 2.749460
H -6.419498 -0.945249 -0.659326
H -6.394420 -1.310216 1.104794
H -4.895368 -1.486095 0.127971
H -7.418067 0.905806 1.516954
H -6.480447 2.410375 1.247123
H -8.551808 1.790246 -0.462412
H -7.352298 2.162133 -2.500177
