69

C 1.007956 -1.703320 -1.442310
C 1.764884 -0.627718 -1.156085
C 1.524857 0.662890 -1.911912
O 0.161184 1.041626 -1.882921
C -0.180651 1.665210 -0.655284
O 0.463289 2.927041 -0.517163
C 0.006876 3.851976 -1.490972
C 0.870107 5.117030 -1.380877
O 0.546888 6.028083 -2.397887
C -1.504756 4.180819 -1.299322
O -2.158743 4.065251 -2.539509
C -2.159945 3.228446 -0.274926
O -1.787975 3.588331 1.034095
C -1.730207 1.779166 -0.550007
O -2.222288 0.958142 0.497817
C -2.420461 -0.385264 0.086796
O -1.882553 -1.221472 1.098019
C -1.992890 -2.589749 0.740376
C -1.187209 -3.448937 1.728789
O -1.584038 -3.217928 3.055170
C -3.477960 -3.022183 0.666265
O -4.093622 -3.011592 1.931090
C -4.240545 -2.117512 -0.327485
O -3.868336 -2.437311 -1.644710
C -3.939859 -0.626916 -0.056902
O -4.450060 0.168485 -1.099226
C 2.887212 -0.700298 -0.125749
C 4.006505 -1.651412 -0.590294
C 5.032204 -1.910237 0.490045
C 4.783665 -1.715061 1.805406
C 5.853236 -2.061367 2.805833
C 3.510788 -1.042103 2.286501
C 2.376994 -1.136121 1.258431
H 1.160435 -2.653705 -0.942077
H 0.225140 -1.646467 -2.191982
H 1.798365 0.481295 -2.970883
H 2.192070 1.481764 -1.571549
H 0.156364 1.032919 0.196374
H 0.181826 3.439589 -2.513420
H 0.694380 5.600003 -0.393557
H 1.952088 4.844595 -1.431957
H 1.027753 5.726644 -3.213400
H -1.632128 5.222571 -0.922508
H -3.019451 4.556140 -2.461689
H -3.270593 3.285877 -0.371859
H -2.323537 4.388337 1.273421
H -2.195654 1.507414 -1.529035
H -1.915370 -0.616664 -0.886115
H -1.529721 -2.766077 -0.257895
H -0.102619 -3.237054 1.607381
H -1.338624 -4.523835 1.496390
H -1.109413 -2.399731 3.357291
H -3.523979 -4.066661 0.292584
H -4.058932 -2.091800 2.297215
H -5.336610 -2.281380 -0.199909
H -4.341344 -3.276664 -1.878290
H -4.428060 -0.323445 0.901473
H -5.435457 0.193486 -0.983974
H 3.340507 0.311702 -0.016228
H 4.520405 -1.205220 -1.470803
H 3.585721 -2.634318 -0.896845
H 5.969454 -2.365499 0.185463
H 6.797459 -1.529634 2.552364
H 6.040979 -3.157723 2.788790
H 5.548821 -1.764549 3.832136
H 3.171661 -1.517350 3.232769
H 3.735076 0.028832 2.492613
H 1.531327 -0.492090 1.583715
H 2.017115 -2.187299 1.218451
