85

C 1.703560 0.504447 -3.319329
C 1.612617 1.065958 -2.106796
C 2.427236 0.638119 -0.894808
C 3.955436 0.721688 -1.128633
O 4.601062 0.803178 0.131828
C 5.694592 1.706027 0.133188
O 5.976236 2.080190 1.478174
C 6.866939 1.209758 2.160966
C 6.247567 -0.187768 2.395654
O 6.875804 -0.830611 3.474684
C 8.277393 1.170701 1.491615
O 9.211306 1.953977 2.199079
C 8.239475 1.576907 -0.000457
O 8.458183 2.956608 -0.194702
C 6.915970 1.124893 -0.639127
O 6.864154 1.527803 -1.986334
O 4.444733 -0.434865 -1.817020
C 3.813461 -1.689192 -1.807824
C 2.628372 -1.867728 -1.205024
C 1.863618 -3.117433 -1.382972
O 2.437948 -4.172732 -1.773390
N 0.446861 -3.103384 -1.138396
C -0.322871 -4.354378 -1.124598
C -1.368254 -4.301139 -0.018321
C -2.236134 -3.088903 -0.192372
C -3.594710 -3.143768 0.150189
C -4.427303 -2.026583 -0.009144
O -5.781733 -2.157078 0.289124
C -3.883587 -0.809231 -0.486267
O -4.619886 0.379158 -0.669333
C -5.851046 0.759674 -0.049984
O -6.338365 1.911452 -0.715801
C -7.682301 2.215918 -0.343000
C -8.667642 1.496428 -1.285190
O -9.970983 1.986116 -1.124618
C -7.990853 1.948083 1.163715
O -8.951935 2.857487 1.642661
C -6.698220 2.072625 1.991913
O -6.204464 3.391119 1.932164
C -5.618010 1.095380 1.449136
O -5.565683 -0.073882 2.222957
C -2.526142 -0.767744 -0.835307
C -1.689937 -1.889637 -0.683671
C -0.216920 -1.786670 -1.052830
C 0.534423 -0.917414 -0.025739
C 2.051264 -0.760998 -0.343315
H 1.089722 0.878482 -4.131421
H 2.378792 -0.313946 -3.528919
H 0.926231 1.897175 -1.986473
H 2.183198 1.377635 -0.098565
H 4.149980 1.611460 -1.771941
H 5.405295 2.664173 -0.358092
H 6.989698 1.641384 3.178175
H 6.305387 -0.818981 1.482506
H 5.173587 -0.069965 2.647468
H 7.680440 -1.286142 3.117602
H 8.655878 0.125391 1.525636
H 8.817878 2.857722 2.328630
H 9.067113 1.044163 -0.516524
H 7.757697 3.458841 0.297485
H 6.876394 0.011150 -0.592144
H 7.487701 0.940029 -2.488068
H 4.274363 -2.494890 -2.366662
H 0.339350 -5.225830 -0.935341
H -0.818691 -4.493997 -2.111232
H -1.978237 -5.230963 -0.053892
H -0.864489 -4.246941 0.970743
H -4.014592 -4.068287 0.526516
H -6.172986 -3.028622 0.628147
H -6.588053 -0.056379 -0.171779
H -7.805082 3.305983 -0.515644
H -8.341457 1.630734 -2.340993
H -8.671751 0.406257 -1.078941
H -10.000912 2.871905 -1.570993
H -8.366199 0.904831 1.296360
H -9.845686 2.465266 1.449130
H -6.920833 1.819930 3.057289
H -6.797089 3.950518 2.496589
H -4.627180 1.593142 1.543296
H -6.473436 -0.476354 2.219292
H -2.114791 0.155709 -1.222916
H -0.149389 -1.299872 -2.049531
H 0.049687 0.078931 0.059560
H 0.427586 -1.401986 0.971170
H 2.573641 -0.850211 0.636688
