75

C 0.131084 -3.317252 -1.090995
C -1.114378 -2.691848 -0.463300
C -1.361494 -3.223604 0.998125
C -2.606607 -2.405150 1.482820
O -2.910249 -2.683123 2.823270
O -3.670175 -2.777134 0.626118
C -3.282536 -2.225227 -0.622315
O -2.273542 -3.037991 -1.197527
C -2.608642 -0.906086 -0.294632
C -3.228649 0.361897 -0.912620
O -4.501872 0.600145 -0.317283
C -5.412753 1.540106 -0.807338
O -5.187446 2.135234 -1.898346
C -6.650542 1.816507 -0.049244
C -7.706862 2.533645 -0.637902
C -8.882558 2.772353 0.078459
C -9.011614 2.312827 1.395870
O -10.177860 2.548770 2.121590
C -7.961060 1.606536 1.988474
C -6.791568 1.347772 1.267982
C -2.392270 -0.877859 1.211848
C -0.923477 -0.502078 0.955402
C -1.108190 -1.119849 -0.453775
O -0.594490 -0.495176 -1.626355
C 0.608571 0.222183 -1.408574
O 1.538609 -0.554527 -0.657840
C 2.899847 -0.144453 -0.764946
C 3.581050 -0.430592 0.577278
O 4.969174 -0.116424 0.523688
C 5.834980 -0.401269 1.584402
O 5.398408 -0.985460 2.613628
C 7.264062 -0.031231 1.494890
C 8.186180 -0.499005 2.450483
C 9.535789 -0.156762 2.353364
C 9.984804 0.651319 1.306691
C 9.079729 1.124366 0.355030
C 7.724448 0.786593 0.445665
C 3.107012 1.326990 -1.219218
O 2.611189 2.206661 -0.241581
C 2.380519 1.592743 -2.563114
O 3.276910 1.477651 -3.639923
C 1.179460 0.641349 -2.775730
O 1.579436 -0.499495 -3.493922
H 0.242803 -2.983808 -2.145998
H 1.032867 -3.029397 -0.516473
H 0.048246 -4.422514 -1.076707
H -0.478310 -3.103004 1.662672
H -1.613350 -4.307329 0.976848
H -3.760904 -2.206197 3.025494
H -4.155927 -2.126609 -1.304818
H -3.341612 0.211734 -2.006477
H -2.576253 1.242144 -0.736999
H -7.629360 2.898887 -1.653171
H -9.690520 3.320364 -0.385983
H -10.966623 3.033741 1.714886
H -8.056252 1.247493 3.005763
H -5.997702 0.787905 1.745007
H -3.026696 -0.161337 1.780904
H -0.164766 -0.975931 1.611150
H -0.813823 0.604087 0.945902
H 0.361850 1.153835 -0.854079
H 3.392667 -0.799005 -1.518216
H 3.455985 -1.512270 0.813817
H 3.098961 0.161572 1.383831
H 7.869845 -1.129435 3.269159
H 10.233777 -0.519516 3.093362
H 11.033807 0.910911 1.233580
H 9.427417 1.757497 -0.452863
H 7.035838 1.174513 -0.297618
H 4.198145 1.502579 -1.370533
H 3.380440 2.518899 0.300403
H 1.973903 2.631624 -2.542927
H 3.822975 2.308221 -3.652512
H 0.394816 1.190864 -3.351704
H 0.755328 -0.904570 -3.874653
