68

C 3.365290 3.403550 -2.638487
C 1.863630 3.497704 -2.406551
O 1.294888 2.200385 -2.449210
C 0.873431 1.740285 -1.174895
C -0.482572 2.391122 -0.707630
C -0.843790 1.598973 0.601057
C -2.185501 2.050721 1.179962
O 0.203856 1.871737 1.511709
C 1.325275 1.220199 0.938723
O 1.815415 1.993487 -0.144969
C 0.788050 -0.052798 0.317246
C 1.408760 -1.391506 0.770956
O 2.766858 -1.479470 0.340264
C 3.862578 -1.098409 1.124048
O 3.715097 -0.868832 2.355990
C 5.201123 -0.994838 0.504979
C 5.347926 -1.115932 -0.888597
C 6.614668 -1.033888 -1.476498
C 7.745366 -0.824349 -0.681361
C 7.610320 -0.692535 0.702471
C 6.346282 -0.774026 1.295750
C 0.743514 0.181212 -1.185306
C -0.711854 -0.311519 -1.185648
C -0.734697 0.054972 0.319226
O -1.332863 -0.807100 1.280059
C -2.508182 -1.446303 0.813177
O -3.374128 -0.516637 0.179152
C -4.469107 -1.192205 -0.417545
C -5.303937 -0.171540 -1.203813
O -5.679761 0.904653 -0.383994
C -5.331098 -1.947767 0.643454
O -5.412125 -3.311782 0.314177
C -4.720770 -1.805412 2.053135
O -4.914829 -0.497181 2.529204
C -3.210467 -2.112337 2.029746
O -3.018705 -3.504750 1.991306
H 3.836782 2.791859 -1.839401
H 3.568888 2.932701 -3.623521
H 3.813763 4.419132 -2.624965
H 1.673698 4.058061 -1.463932
H 1.416284 4.098499 -3.225610
H -1.273728 2.337197 -1.483650
H -0.338333 3.466032 -0.464198
H -2.125217 3.117204 1.480760
H -2.989097 1.954457 0.422006
H -2.444958 1.449912 2.076338
H 2.112626 1.057281 1.701118
H 0.848196 -2.236182 0.313343
H 1.324009 -1.503348 1.874004
H 4.485243 -1.272588 -1.525091
H 6.718491 -1.132113 -2.548884
H 8.724623 -0.764409 -1.136288
H 8.486454 -0.530733 1.316678
H 6.267021 -0.673995 2.370725
H 1.484298 -0.387667 -1.788976
H -1.421783 0.226746 -1.843888
H -0.741958 -1.406303 -1.379103
H -2.206993 -2.246733 0.097484
H -4.087273 -1.918583 -1.172879
H -4.688205 0.226132 -2.039440
H -6.194486 -0.669281 -1.657984
H -6.590469 0.709673 -0.043013
H -6.367392 -1.537690 0.688599
H -6.013542 -3.380781 -0.472620
H -5.219321 -2.521799 2.748441
H -5.863168 -0.430780 2.816100
H -2.778940 -1.717911 2.983002
H -2.073461 -3.671875 2.243200
