54

C -3.537461 -2.463577 -0.411444
C -3.356219 -1.011461 -0.762975
C -2.467647 -0.178713 -0.166568
C -2.663238 1.316369 -0.376102
N -1.530817 2.150323 0.116402
C -0.500383 2.399188 -0.936947
O -1.077792 2.833911 -2.157559
C -1.493965 4.178282 -2.049859
C 0.338494 1.118038 -1.184208
C 0.760967 0.400555 0.150803
C 0.483364 1.352754 1.271250
N 1.501781 1.782570 1.949310
C 2.621450 1.151430 1.350017
C 3.956262 1.309656 1.717146
C 4.934183 0.623158 0.977262
C 4.562309 -0.192171 -0.111580
C 3.209658 -0.331272 -0.465054
C 2.254812 0.346211 0.295898
C -0.943733 1.747285 1.448723
C -1.604039 0.480483 2.020847
C -1.530926 -0.636352 0.945289
C -0.017394 -0.951710 0.494592
C 0.677518 -1.673897 1.706362
O 0.006371 -2.861993 2.035760
C 0.072895 -1.918536 -0.694100
O -0.728373 -1.838491 -1.663519
O 1.107331 -2.861972 -0.747948
C 1.280873 -3.753827 -1.841971
H -2.588052 -3.027200 -0.497903
H -4.278842 -2.920957 -1.099417
H -3.926688 -2.554259 0.624127
H -4.043731 -0.604716 -1.500410
H -3.578521 1.621794 0.174847
H -2.888384 1.516075 -1.444854
H 0.213257 3.175330 -0.564039
H -0.620756 4.856282 -1.928395
H -2.011651 4.463495 -2.988428
H -2.214322 4.319187 -1.213887
H -0.241612 0.455100 -1.846776
H 1.235739 1.409564 -1.774102
H 4.233031 1.947424 2.546405
H 5.978861 0.727024 1.239947
H 5.322974 -0.709469 -0.681562
H 2.918865 -0.942104 -1.308778
H -1.030597 2.588257 2.169271
H -2.661733 0.695494 2.293399
H -1.115013 0.169805 2.968440
H -1.961752 -1.537321 1.426891
H 0.719238 -1.016559 2.599719
H 1.734900 -1.923927 1.467065
H 0.491356 -3.251053 2.809405
H 2.161528 -4.399850 -1.648665
H 1.454499 -3.178851 -2.776143
H 0.381123 -4.394805 -1.955985
