46

C 5.286485 -0.304363 -0.043144
C 4.406535 0.530293 0.839255
C 3.061986 0.532970 0.757306
C 2.224250 1.402496 1.665442
N 0.788531 1.228757 1.324069
C 0.564925 1.638944 -0.099409
C -0.963273 1.714661 -0.377908
C -1.637423 0.490459 0.150603
C -1.056730 -0.361440 1.065781
N -1.885459 -1.384896 1.376235
C -3.011550 -1.150733 0.673200
C -4.171323 -1.922710 0.655068
C -5.234446 -1.494908 -0.161878
C -5.119029 -0.318736 -0.939137
O -6.187153 0.079869 -1.739114
C -3.930960 0.441157 -0.903651
C -2.898329 -0.008029 -0.083945
C 0.378499 -0.205818 1.504685
O 0.484933 -0.573605 2.859229
C 1.287828 -1.139873 0.638365
C 2.244171 -0.286872 -0.219928
C 1.423710 0.725108 -1.072635
C 0.648455 0.039133 -2.223100
O 1.521836 -0.697703 -3.038342
H 6.351038 -0.124669 0.214940
H 5.063904 -1.381881 0.106316
H 5.129560 -0.029471 -1.107524
H 4.889146 1.164310 1.578191
H 2.516984 2.468579 1.544683
H 2.403958 1.125658 2.726750
H 0.931533 2.683770 -0.225741
H -1.190446 1.865481 -1.451614
H -1.380648 2.588434 0.167171
H -1.688283 -2.190830 2.010490
H -4.253612 -2.822844 1.250367
H -6.148104 -2.074437 -0.194538
H -6.137764 0.916593 -2.308586
H -3.821939 1.341652 -1.494506
H -0.022445 0.097307 3.387850
H 1.893273 -1.804123 1.295220
H 0.696254 -1.818133 -0.014859
H 2.872771 -0.941517 -0.857671
H 2.163799 1.389809 -1.575989
H 0.187212 0.818381 -2.863741
H -0.171278 -0.607169 -1.838339
H 1.488619 -1.639061 -2.724726
