39

C -4.720639 0.639422 -1.769978
C -5.125077 -0.621955 -1.330625
C -4.284517 -1.380473 -0.512653
C -3.024425 -0.887176 -0.137148
C -2.626269 0.397597 -0.559773
C -3.475877 1.146588 -1.389996
C -1.263729 0.943156 -0.227239
C -0.552747 0.152210 0.891982
C 0.914781 0.455444 0.866340
N 1.504649 1.590950 1.303798
C 2.811250 1.443288 1.007713
C 3.844200 2.340734 1.273949
C 5.147399 1.978089 0.885125
C 5.387622 0.740314 0.246564
C 4.327083 -0.147319 -0.012133
C 3.047998 0.240893 0.381087
C 1.828835 -0.389126 0.268639
C 1.490268 -1.748902 -0.258202
C -0.038359 -1.897746 -0.411390
N -0.744795 -1.315072 0.758313
C -2.170306 -1.688684 0.812441
H -5.371508 1.224411 -2.406885
H -6.092537 -1.010944 -1.620811
H -4.617462 -2.351765 -0.167935
H -3.170742 2.122949 -1.746223
H -0.654232 0.929731 -1.157752
H -1.358832 2.004593 0.091241
H -0.955906 0.478911 1.876478
H 1.044894 2.406333 1.766953
H 3.652151 3.285182 1.766419
H 5.971983 2.651850 1.078161
H 6.394652 0.473145 -0.046100
H 4.501055 -1.096901 -0.501513
H 1.865064 -2.509052 0.460099
H 1.985003 -1.909421 -1.239676
H -0.265293 -2.982977 -0.497081
H -0.371042 -1.415058 -1.355882
H -2.289712 -2.776732 0.613083
H -2.544879 -1.516485 1.844402
