72

C 9.489266 -0.035315 0.956605
C 8.988517 -0.572149 -0.361980
C 9.792921 -1.619605 -1.086416
C 7.836804 -0.142534 -0.926209
C 6.909036 0.887747 -0.321389
C 5.676822 0.223981 0.319267
O 6.045242 -0.400748 1.519296
C 4.525250 1.191020 0.586190
C 4.764769 2.648350 0.922856
C 3.262524 0.702742 0.552909
C 2.041688 1.530576 0.870017
O 0.877604 0.726027 0.826846
C 0.301656 0.668587 -0.473794
O -0.966807 1.317031 -0.449237
C -2.070759 0.509166 -0.026920
C -2.982617 0.209108 -1.244430
O -4.314691 0.640410 -1.007497
C -5.163857 -0.410460 -0.563998
O -5.533766 -0.178412 0.792809
C -6.652118 0.681869 0.898837
C -6.766055 1.178333 2.349319
O -7.882333 2.013029 2.517282
C -7.939680 -0.037304 0.396620
O -8.594603 -0.695624 1.452407
C -7.609334 -1.030598 -0.756792
O -7.346849 -2.324949 -0.270344
C -6.376170 -0.532757 -1.527566
O -6.056233 -1.405865 -2.580786
C -1.669351 -0.762128 0.778902
O -2.790978 -1.519423 1.149668
C -0.654116 -1.642519 0.018581
O -1.318775 -2.669911 -0.678798
C 0.220669 -0.805232 -0.945276
O -0.284537 -0.889929 -2.258580
H 10.432378 -0.529833 1.260411
H 8.740019 -0.205112 1.754794
H 9.698400 1.049941 0.866920
H 10.173849 -1.204494 -2.038629
H 9.158638 -2.506984 -1.301286
H 10.662632 -1.954796 -0.483371
H 7.517031 -0.588903 -1.865079
H 7.444067 1.513680 0.421091
H 6.575596 1.559166 -1.141669
H 5.324152 -0.548228 -0.406776
H 5.389249 -1.133030 1.679382
H 5.843133 2.905196 0.995235
H 4.297699 3.287826 0.149830
H 4.321190 2.869880 1.920371
H 3.105558 -0.350593 0.339968
H 2.145274 1.915331 1.905864
H 1.972929 2.421971 0.213210
H 0.916951 1.198387 -1.238499
H -2.662225 1.143135 0.676118
H -2.614527 0.793655 -2.111497
H -2.908168 -0.839722 -1.593471
H -4.673234 -1.410328 -0.565715
H -6.483183 1.591653 0.276312
H -5.841184 1.729901 2.627129
H -6.855441 0.309201 3.037812
H -7.680485 2.860942 2.039041
H -8.615120 0.752932 -0.006391
H -9.503025 -0.927750 1.123542
H -8.476581 -1.074431 -1.455755
H -8.212004 -2.715322 0.029423
H -6.613164 0.470371 -1.952481
H -6.801983 -1.349977 -3.234497
H -1.167385 -0.411828 1.709904
H -3.220174 -1.052045 1.913730
H 0.012049 -2.102078 0.790815
H -0.660978 -3.402543 -0.807025
H 1.245696 -1.240439 -0.948504
H 0.253231 -0.277248 -2.831191
