50

C -2.933008 -3.465616 -0.142035
C -2.156038 -2.212448 -0.429594
C -0.965393 -2.293818 -1.056474
O -0.189821 -1.143272 -1.315823
C -0.551792 0.176331 -0.867320
O 0.013033 0.436033 0.406678
C 1.427684 0.475456 0.343744
O 1.935101 -0.847155 0.394555
C 3.338534 -0.908649 0.148733
C 3.610860 -1.302286 -1.311838
O 3.184209 -0.298153 -2.190109
C 4.132837 0.356786 0.594306
O 5.456283 0.009454 0.914166
C 3.451751 0.968060 1.829571
O 4.115043 2.144778 2.216773
C 1.963232 1.290558 1.541881
O 1.192240 1.020101 2.685634
C -2.085820 0.239534 -0.795321
C -2.588458 -0.867471 0.111896
C -4.080309 -0.573847 0.207159
C -4.186639 0.962118 0.136625
C -2.787119 1.498999 -0.270906
C -2.873036 2.587221 -1.357806
O -2.108910 1.996573 0.859444
H -2.287092 -4.197685 0.387695
H -3.814196 -3.260362 0.499096
H -3.283611 -3.912934 -1.095729
H -0.594301 -3.253383 -1.394251
H -0.212503 0.928554 -1.614741
H 1.764560 0.996459 -0.584978
H 3.714605 -1.752237 0.769131
H 4.698914 -1.487022 -1.453070
H 3.067671 -2.247689 -1.536513
H 3.379701 -0.630288 -3.104523
H 4.130953 1.125916 -0.214748
H 5.957191 -0.036242 0.058624
H 3.500675 0.218732 2.657142
H 4.917386 1.869953 2.732970
H 1.855655 2.369028 1.274748
H 1.387102 1.742499 3.338438
H -2.463275 0.038598 -1.828572
H -2.149987 -0.756252 1.130735
H -4.619402 -1.029345 -0.653479
H -4.505613 -0.962020 1.158099
H -4.500567 1.368521 1.123012
H -4.964527 1.240545 -0.608512
H -3.450462 3.458980 -0.982967
H -1.853695 2.931478 -1.633499
H -3.377691 2.200968 -2.269383
H -2.611959 2.785942 1.191334
