49

C -2.603869 2.750068 0.775702
C -1.873817 1.400240 0.823232
C -1.539743 0.754894 -0.586457
C -0.398424 1.564096 -1.230705
C 0.883617 1.454042 -0.397624
C 1.862557 2.559190 -0.489133
O 1.847084 3.329416 -1.488548
O 2.768899 2.779682 0.553432
C 3.727809 3.829710 0.527472
C 1.177561 0.307099 0.285567
N 2.533297 -0.153845 0.370856
C 2.471984 -1.529162 0.034823
C 3.560288 -2.351464 -0.256812
C 3.309525 -3.674813 -0.653417
C 1.986553 -4.145789 -0.761157
C 0.905779 -3.296410 -0.473905
C 1.175495 -1.978017 -0.090068
C 0.225259 -0.892925 0.347071
C -0.368327 -1.300171 1.713588
C -1.718583 -1.975750 1.369771
N -2.027471 -1.575984 0.000067
C -3.361484 -1.441560 -0.544614
O -4.060693 -2.462387 -0.774010
C -3.958619 -0.050812 -0.691563
O -3.961095 1.151445 -1.484937
C -2.770431 0.513044 -1.519153
C -0.995476 -0.712921 -0.533356
H -2.672002 3.158496 1.806329
H -2.058217 3.491459 0.160342
H -3.638993 2.649938 0.400272
H -0.942729 1.590168 1.392623
H -2.446436 0.714133 1.473387
H -0.695049 2.624687 -1.356683
H -0.183987 1.179248 -2.252220
H 4.329042 3.797039 1.459064
H 4.405731 3.703417 -0.343127
H 3.214103 4.812359 0.464541
H 3.399293 0.419540 0.270416
H 4.573433 -1.977850 -0.185123
H 4.136601 -4.334468 -0.881472
H 1.801712 -5.167935 -1.064841
H -0.110460 -3.658841 -0.549230
H -0.531338 -0.415766 2.360598
H 0.286899 -1.998225 2.281541
H -2.514771 -1.638302 2.067707
H -1.627312 -3.081441 1.419604
H -4.183894 0.303837 0.329165
H -2.601518 0.042850 -2.516922
H -0.737781 -1.065258 -1.562092
