50

C 6.753214 1.540644 -1.417687
O 5.355825 1.361822 -1.364835
C 5.041610 0.422737 -0.358590
C 3.553833 0.209749 -0.331640
C 2.938426 -0.378826 -1.373303
O 1.548984 -0.594044 -1.365017
C 0.727226 -0.347117 -0.216183
O -0.597787 -0.103833 -0.684801
C -1.568178 0.072078 0.343240
O -2.540098 -0.956203 0.190645
C -3.699077 -0.680580 0.953618
C -4.496187 -1.981289 1.140716
O -5.671224 -1.747973 1.870182
C -4.516623 0.446818 0.266353
O -5.419202 -0.088693 -0.669078
C -3.568215 1.441088 -0.453254
O -4.154797 2.716254 -0.539232
C -2.190094 1.502266 0.238092
O -1.334652 2.365095 -0.469000
C 1.304857 0.904473 0.502891
C 2.751922 0.583003 0.899359
C 2.733605 -0.587482 1.845008
O 3.579411 -0.666248 2.775038
C 1.762666 -1.678658 1.634772
C 0.820562 -1.594068 0.676640
C -0.018797 -2.807374 0.384418
H 6.984614 2.283912 -2.207948
H 7.270755 0.592812 -1.686056
H 7.145748 1.939689 -0.455881
H 5.532813 -0.557728 -0.557712
H 5.380426 0.791238 0.636648
H 3.505840 -0.675721 -2.246448
H -1.134708 -0.031860 1.365446
H -3.414054 -0.342107 1.979576
H -3.864031 -2.734124 1.664929
H -4.763963 -2.411644 0.152349
H -5.398120 -1.622826 2.816429
H -5.085979 0.974876 1.067480
H -6.083004 0.623016 -0.865777
H -3.398664 1.078550 -1.492230
H -4.247583 3.067307 0.384988
H -2.332126 1.888623 1.276450
H -1.561316 3.291134 -0.192259
H 0.727562 1.176854 1.411863
H 1.290521 1.778285 -0.185020
H 3.197108 1.471881 1.398326
H 1.840827 -2.570681 2.245613
H -0.714716 -2.993127 1.229464
H -0.607836 -2.675465 -0.546425
H 0.632677 -3.696535 0.246467
