50

C -1.597933 -3.625586 -1.692702
C -0.322495 -3.099688 -1.019283
C -0.570232 -1.995516 0.056943
C -1.453768 -2.603333 1.144208
C -2.595771 -2.046209 1.564518
C -3.073890 -0.745395 1.005341
N -2.715807 -0.657219 -0.419870
C -3.304975 0.548543 -1.066961
C -2.710799 1.891368 -0.560149
C -1.238219 1.760225 -0.337166
C -0.604283 0.552129 -0.215426
N 0.714525 0.690327 0.003138
C 0.939129 2.030596 -0.019680
C 2.155046 2.722634 0.045009
C 2.122180 4.127619 -0.020864
C 0.897332 4.812939 -0.168991
C -0.309954 4.101336 -0.267686
C -0.251887 2.711784 -0.193859
C 1.607390 -0.476010 0.103695
O 2.037150 -0.855636 -1.179860
C 2.800314 -0.194238 0.989700
O 2.628475 0.318032 2.130990
O 4.085722 -0.533585 0.554941
C 5.248018 -0.287072 1.336432
C 0.807130 -1.646782 0.743360
C -1.244763 -0.731436 -0.620423
H -2.279961 -4.083901 -0.946659
H -2.134018 -2.816372 -2.229153
H -1.324914 -4.405880 -2.433951
H 0.352094 -2.710982 -1.811656
H 0.194301 -3.969711 -0.556510
H -1.136637 -3.533762 1.608230
H -3.178130 -2.537870 2.337964
H -2.619667 0.082915 1.591331
H -4.177796 -0.696704 1.126198
H -3.137643 0.479595 -2.164343
H -4.407425 0.557231 -0.923316
H -3.193244 2.176340 0.398637
H -2.909928 2.691950 -1.303946
H 3.104654 2.215528 0.121717
H 3.046519 4.688069 0.032043
H 0.889497 5.893685 -0.224583
H -1.250374 4.617663 -0.410897
H 2.441030 -0.054139 -1.605500
H 6.141844 -0.637636 0.780947
H 5.182958 -0.837695 2.298723
H 5.349671 0.801456 1.532419
H 1.456234 -2.549241 0.803193
H 0.604343 -1.355078 1.800597
H -1.061042 -0.785290 -1.716838
