49

C -3.962788 -0.082385 -2.245732
C -3.609137 1.203823 -1.494713
C -2.966523 0.996322 -0.101362
C -3.977028 0.508198 0.970665
C -3.260602 -0.507664 1.870044
C -1.958787 0.211878 2.418926
C -0.952097 0.131270 1.260016
C 0.495095 0.321634 1.048993
N 1.311629 1.206224 1.655303
C 2.517487 0.991058 1.093641
C 3.698532 1.678779 1.358848
C 4.849496 1.322653 0.633499
C 4.800914 0.293114 -0.347515
O 5.927606 -0.083704 -1.092962
C 7.215977 0.506349 -0.955249
C 3.587921 -0.379693 -0.592066
C 2.466494 -0.013514 0.149768
C 1.167806 -0.482034 0.113154
C 0.538099 -1.488853 -0.876375
C -0.826057 -2.197183 -0.468618
N -2.051490 -1.328041 -0.270744
C -2.909076 -1.739033 0.914746
C -1.690514 0.088687 -0.110298
H -3.041494 -0.608025 -2.572132
H -4.544623 0.174420 -3.155824
H -4.578267 -0.761204 -1.621614
H -2.911207 1.793693 -2.128147
H -4.531819 1.812969 -1.376658
H -2.623795 2.007313 0.218038
H -4.336882 1.368507 1.577266
H -4.876479 0.039800 0.517080
H -3.922335 -0.824681 2.704499
H -1.602709 -0.285725 3.353790
H -2.155701 1.275327 2.676567
H -0.709161 -0.903483 1.583112
H 1.058733 1.912556 2.381771
H 3.730040 2.468907 2.097972
H 5.769326 1.853647 0.836043
H 7.915845 0.018274 -1.663993
H 7.595369 0.358205 0.077880
H 7.167104 1.589946 -1.193300
H 3.530456 -1.162265 -1.337782
H 0.408557 -0.989963 -1.859948
H 1.283210 -2.295261 -1.044332
H -0.609653 -2.824113 0.422835
H -1.068229 -2.921466 -1.274549
H -2.432998 -2.529013 1.533886
H -3.851339 -2.183158 0.528849
H -1.074905 0.456908 -0.959446
