29

C -3.445940 0.466984 -0.704623
C -2.146286 -0.013464 -0.026342
O -2.467802 -0.949695 0.975182
C -1.273420 -0.737587 -1.098907
C 0.144201 -0.931237 -0.565517
O 1.051895 -1.555457 -1.452678
C 2.311602 -1.011452 -1.247779
O 3.346102 -1.448155 -1.816940
C 2.293491 0.151857 -0.306501
C 2.881990 -0.248061 1.058974
O 2.946649 0.860510 1.914949
C 0.776810 0.433444 -0.298804
C 0.096770 1.088358 0.901809
C -1.392224 1.169194 0.617674
O -2.011019 2.146251 1.014231
H -3.973485 -0.389663 -1.176695
H -4.133428 0.924974 0.038530
H -3.220918 1.222630 -1.488032
H -3.017371 -0.487799 1.662187
H -1.235799 -0.146862 -2.041654
H -1.713486 -1.729571 -1.341498
H 0.107967 -1.535576 0.370643
H 2.856915 1.008292 -0.738461
H 3.902687 -0.673084 0.920862
H 2.258979 -1.034492 1.535951
H 3.695592 1.426566 1.591923
H 0.589615 1.096545 -1.178629
H 0.516659 2.106160 1.055327
H 0.253253 0.490673 1.824818
