50

C -5.504974 0.681642 0.441991
O -4.121679 0.634460 0.714635
C -3.403970 0.152803 -0.411963
C -2.866227 1.350038 -1.193251
C -1.798404 0.896661 -2.171003
N -0.582233 0.464786 -1.453925
C 0.436937 0.088771 -2.472523
C 1.642786 -0.714676 -1.955489
C 2.193672 -0.186721 -0.669291
C 1.528084 -0.088111 0.557173
N 2.400892 0.286161 1.526921
C 3.595668 0.423355 0.932080
C 4.800001 0.780302 1.537072
C 5.949083 0.842122 0.729350
C 5.870200 0.544517 -0.648261
C 4.641499 0.184138 -1.230746
C 3.514185 0.138498 -0.405688
C 0.052832 -0.340436 0.848417
C -0.469930 0.905356 1.563756
O -0.184646 2.053308 1.124008
O -1.316425 0.793627 2.665050
C -0.048478 -1.597920 1.782759
C -1.357087 -2.421961 1.636084
C -2.496131 -1.629310 1.046141
C -2.271514 -0.738276 0.058450
C -0.822225 -0.593879 -0.428732
H -5.914403 -0.343609 0.306425
H -6.021556 1.139140 1.310385
H -5.722933 1.308941 -0.450390
H -4.029525 -0.474362 -1.093953
H -3.697345 1.829495 -1.754083
H -2.437621 2.106481 -0.499726
H -2.202238 0.075261 -2.807401
H -1.553948 1.758193 -2.831855
H 0.826428 1.022579 -2.935027
H -0.021142 -0.515307 -3.289147
H 2.423961 -0.694595 -2.743085
H 1.382412 -1.785497 -1.824408
H 2.189795 0.432834 2.539561
H 4.851197 0.999548 2.595740
H 6.900036 1.116187 1.167235
H 6.761394 0.592479 -1.260384
H 4.584613 -0.044126 -2.286099
H -1.687223 1.618021 3.121873
H 0.792301 -2.294781 1.564390
H 0.086564 -1.303865 2.846936
H -1.165958 -3.286914 0.964253
H -1.659997 -2.830406 2.623872
H -3.488336 -1.746068 1.473095
H -0.578396 -1.588883 -0.861224
