51

C -6.602593 -0.281258 0.463353
C -5.206387 0.281761 0.381192
C -4.281934 0.152971 1.569767
C -4.832239 0.907750 -0.756860
C -3.467744 1.506814 -0.998820
C -2.475943 0.454340 -1.539952
O -2.929021 -0.147616 -2.731583
C -1.096890 1.074353 -1.744228
C -0.820766 1.908704 -2.972861
C -0.115258 0.987332 -0.816290
C -0.258520 0.279532 0.510538
O 0.902578 0.440027 1.304676
C 1.965957 -0.396451 0.872653
O 2.949639 0.424778 0.262826
C 4.000308 -0.359683 -0.277021
C 4.914114 0.547898 -1.114356
O 5.942097 -0.193076 -1.715012
C 4.780473 -1.073163 0.857678
O 5.500951 -0.159758 1.652549
C 3.803190 -1.916407 1.705877
O 4.446800 -2.469469 2.827914
C 2.556600 -1.102851 2.111336
O 1.604937 -1.972589 2.668381
H -6.789007 -0.781446 1.436729
H -6.755760 -1.027053 -0.345181
H -7.343155 0.537849 0.346707
H -4.774642 -0.375163 2.412099
H -3.379205 -0.427012 1.295899
H -3.983880 1.158328 1.932766
H -5.548558 0.984736 -1.571436
H -3.071963 1.971031 -0.070969
H -3.574107 2.328039 -1.740183
H -2.411800 -0.364618 -0.799316
H -3.379851 0.537978 -3.288760
H -0.020717 1.431165 -3.577038
H -1.719426 2.027748 -3.609026
H -0.489460 2.925589 -2.670583
H 0.832245 1.482465 -1.017537
H -0.515781 -0.795459 0.374161
H -1.103562 0.744397 1.060234
H 1.629857 -1.188252 0.155070
H 3.588482 -1.127061 -0.974596
H 5.365397 1.333785 -0.472825
H 4.312120 1.066421 -1.894978
H 5.532008 -0.684449 -2.474219
H 5.514995 -1.769809 0.397693
H 4.865249 0.518954 1.997237
H 3.460951 -2.764780 1.070992
H 4.660290 -1.729215 3.453916
H 2.848458 -0.332345 2.863382
H 0.970475 -1.412697 3.188004
