52

C -1.064386 1.106499 -2.608038
C -0.114639 0.930875 -1.680023
C -0.228111 -0.069894 -0.521475
C -0.715383 -1.499459 -0.996970
C 0.226468 -2.075607 -2.075286
C 1.568125 -2.394917 -1.393973
O 1.491238 -3.399442 -0.383372
C 0.172377 -3.707626 0.057711
C -0.754688 -2.471707 0.237686
C -0.454465 -1.688211 1.548941
C 0.977716 -1.095912 1.509458
C 1.177538 -0.317274 0.176708
C 2.060314 -1.122964 -0.766747
N 3.181809 -0.557258 -1.088978
C 3.217078 0.672518 -0.388765
C 4.259850 1.596723 -0.407270
C 4.137802 2.752822 0.379461
C 2.991942 2.953325 1.173460
C 1.955047 2.005531 1.176980
C 2.081219 0.875286 0.360366
N -1.450382 -0.594004 1.621514
C -1.595251 -0.020231 2.969268
C -1.233515 0.443893 0.576735
N -2.537453 0.793100 0.002123
C -2.993741 2.145219 -0.153843
C -4.334290 2.411101 -0.756180
O -2.257462 3.114479 0.174767
H -0.910070 1.822356 -3.408699
H -1.992541 0.547783 -2.592481
H 0.790682 1.516552 -1.796169
H -1.732860 -1.435639 -1.437083
H -0.208064 -2.995172 -2.523831
H 0.377988 -1.359447 -2.910870
H 2.289833 -2.733200 -2.168437
H 0.244510 -4.253408 1.022134
H -0.291361 -4.419611 -0.659358
H -1.792064 -2.866208 0.328465
H -0.560013 -2.371918 2.421001
H 1.123294 -0.427546 2.382367
H 1.731482 -1.902339 1.639121
H 5.144145 1.424682 -1.006890
H 4.933458 3.486353 0.386122
H 2.914936 3.837026 1.793446
H 1.100957 2.148366 1.821021
H -2.463845 0.672002 2.986575
H -1.794876 -0.822358 3.711174
H -0.690547 0.545292 3.275505
H -0.791192 1.352078 1.030757
H -3.167939 0.020394 -0.309717
H -4.298567 2.194861 -1.844146
H -5.095993 1.760039 -0.278578
H -4.626108 3.472199 -0.605687
