65

C 3.415176 -2.368584 -1.108856
O 2.646864 -1.884676 -0.030008
C 1.363088 -1.494913 -0.482495
O 0.549023 -2.624994 -0.729626
C -0.416632 -2.654562 0.294313
C -1.644030 -3.434810 -0.191004
C 0.257680 -3.402835 1.509738
C 1.083678 -2.407432 2.306781
O 1.940910 -2.766815 3.097524
C 0.745529 -0.944342 2.103894
C -0.792606 -0.883517 2.154781
C -0.746364 -1.144662 0.628251
O -1.657855 -0.561980 -0.309367
C -2.437071 0.531422 0.146943
O -2.712787 1.339415 -0.990785
C -3.672585 2.335423 -0.687067
C -3.615602 3.434142 -1.759496
O -2.345794 4.028914 -1.781644
C -5.081724 1.687833 -0.545664
O -5.807102 1.742515 -1.751093
C -4.964931 0.213905 -0.085361
O -4.816114 -0.642724 -1.192295
C -3.751275 0.041878 0.845261
O -3.648723 -1.297907 1.251593
C 0.669041 -0.607043 0.573589
C 0.845100 0.910426 0.308801
O 2.226986 1.258741 0.389631
C 3.080671 1.347638 -0.717254
O 2.606388 1.363400 -1.886602
C 4.542523 1.423908 -0.509536
C 5.420483 1.522698 -1.605398
C 6.802592 1.582289 -1.400793
C 7.321837 1.542714 -0.104775
C 6.460047 1.441907 0.989668
C 5.077172 1.381540 0.791107
H 3.635169 -1.556026 -1.835986
H 2.914197 -3.222053 -1.617154
H 4.384910 -2.735112 -0.714530
H 1.423734 -0.921558 -1.436203
H -2.414318 -3.481001 0.606228
H -1.352418 -4.473218 -0.457422
H -2.082155 -2.958918 -1.093631
H 0.909602 -4.224620 1.140426
H -0.507338 -3.848602 2.181669
H 1.280250 -0.220643 2.757425
H -1.307938 -1.672899 2.746371
H -1.114970 0.121065 2.490125
H -1.868719 1.173394 0.843888
H -3.420189 2.833782 0.280463
H -3.809716 2.993569 -2.760596
H -4.395351 4.205333 -1.563028
H -2.301120 4.635352 -0.996847
H -5.633428 2.244347 0.250623
H -6.332072 2.585068 -1.741333
H -5.885797 -0.058880 0.483924
H -5.728886 -0.868128 -1.511456
H -3.912829 0.682665 1.745288
H -4.353715 -1.448867 1.933961
H 0.414632 1.195800 -0.675612
H 0.317422 1.503181 1.082516
H 5.040778 1.552262 -2.619080
H 7.471740 1.658423 -2.248132
H 8.391926 1.588940 0.051282
H 6.863592 1.409106 1.993511
H 4.429414 1.299327 1.654843
