29

C 3.597592 1.219481 -1.093597
C 2.597997 0.343551 -1.256490
C 1.615830 -0.010179 -0.146601
C 2.366486 -0.714001 1.009051
O 0.987709 1.166972 0.308426
C 0.529098 -0.950209 -0.744459
C -0.530859 -1.478752 0.245292
C -1.350238 -0.379629 0.872242
C -2.472516 0.144223 0.336762
C -3.062085 -0.401319 -0.943141
C -3.193520 1.218130 1.065386
O -4.309053 1.632440 0.649359
O -2.648538 1.782295 2.216934
H 3.765039 1.722498 -0.147280
H 4.264266 1.438676 -1.921333
H 2.489271 -0.117102 -2.235446
H 1.702777 -0.840293 1.889359
H 3.236726 -0.112550 1.346405
H 2.737198 -1.710468 0.685743
H 1.636775 1.683344 0.853650
H 1.027265 -1.836357 -1.197695
H 0.014447 -0.418838 -1.573621
H -0.038007 -2.063472 1.048880
H -1.191468 -2.202875 -0.276950
H -0.984960 -0.004132 1.820691
H -3.838096 0.274494 -1.357993
H -3.528022 -1.389507 -0.745994
H -2.285407 -0.511945 -1.725532
H -3.135707 2.515524 2.718239
