46

C -2.211733 -2.756533 -1.574936
C -2.341930 -1.579783 -0.944187
C -1.913300 -1.309816 0.514440
C -2.290599 -2.522307 1.392849
C -2.737724 -0.088142 1.047391
C -2.472937 1.304457 0.398086
C -1.458023 2.126292 1.158731
C -0.514924 2.929226 0.617305
C 0.364601 3.725507 1.538360
C -0.129288 2.900878 -0.815389
O -0.748139 3.622775 -1.639590
O 0.987930 2.159371 -1.242539
C 1.276131 0.898056 -0.644812
C 2.742342 0.458667 -0.705402
O 3.475435 1.212246 0.229378
C 2.804920 -1.084833 -0.394430
C 4.094901 -1.490801 0.321058
O 1.688350 -1.519912 0.384974
C 0.415179 -1.359064 -0.262728
O -0.525771 -1.039297 0.756916
C 0.408599 -0.187951 -1.273086
O 0.903677 -0.579073 -2.530270
H -1.750115 -3.616380 -1.104214
H -2.573619 -2.864673 -2.592281
H -2.855230 -0.797449 -1.494536
H -2.136847 -2.290860 2.468993
H -3.354429 -2.808660 1.242913
H -1.644407 -3.394003 1.159551
H -2.599795 0.000835 2.148190
H -3.818251 -0.319055 0.906765
H -3.423224 1.877253 0.458671
H -2.262317 1.249188 -0.680734
H -1.597881 2.166620 2.233503
H 0.889872 4.529935 0.980477
H 1.122076 3.058304 2.001037
H -0.239427 4.203488 2.339182
H 1.042782 0.968659 0.441991
H 3.131073 0.641308 -1.735894
H 4.398639 1.297832 -0.125371
H 2.809687 -1.645049 -1.357034
H 4.128133 -2.595291 0.434578
H 4.979980 -1.172529 -0.269989
H 4.141224 -1.034512 1.332737
H 0.179784 -2.322562 -0.753689
H -0.600227 0.213620 -1.428177
H 0.214822 -1.165981 -2.938789
