68

C -2.772877 0.180762 -2.756958
C -3.142357 0.165131 -1.471290
C -3.192669 -1.111391 -0.624732
C -4.031277 -2.180046 -1.358781
C -3.827460 -0.828449 0.781078
C -5.356358 -0.599206 0.833242
C -5.815442 0.588326 0.022845
C -5.838211 1.866098 0.464957
C -6.263655 2.944472 -0.498287
C -5.465062 2.243744 1.881248
O -6.463332 1.810610 2.762525
O -1.893368 -1.684953 -0.453589
C -0.881396 -0.777892 -0.023540
O -0.030935 -0.428322 -1.110060
C 0.826306 -1.475931 -1.559643
C 0.091344 -2.525105 -2.417300
O 1.022465 -3.291024 -3.132305
C 1.678227 -2.099445 -0.424961
O 2.642135 -1.150204 0.041410
C 3.828703 -0.852088 -0.636413
O 4.120007 -1.447771 -1.710457
C 4.732973 0.161110 -0.068918
C 5.915318 0.458491 -0.627725
C 6.861456 1.457835 -0.072919
C 8.211889 1.389603 -0.455539
C 9.138673 2.313762 0.036144
C 8.728488 3.326040 0.907686
O 9.662901 4.239383 1.390976
C 7.382360 3.414431 1.283618
C 6.452333 2.490966 0.795295
C 0.790843 -2.533003 0.744325
O 1.601938 -2.946939 1.813870
C -0.093791 -1.351865 1.174432
O -0.960890 -1.712108 2.221587
H -2.511652 -0.727860 -3.284085
H -2.735729 1.121678 -3.296479
H -3.374731 1.118731 -1.006690
H -4.230848 -3.044515 -0.689031
H -3.481913 -2.571746 -2.240789
H -4.998511 -1.766381 -1.714960
H -3.621456 -1.704472 1.432389
H -3.325599 0.034034 1.263024
H -5.885962 -1.504209 0.470025
H -5.669666 -0.486425 1.891891
H -6.122251 0.385909 -1.000737
H -6.284005 3.943871 -0.015492
H -5.555673 2.981770 -1.353411
H -7.283529 2.725694 -0.882110
H -5.353291 3.345927 1.973755
H -4.487152 1.794671 2.154189
H -6.137256 2.024650 3.674767
H -1.306463 0.177940 0.352088
H 1.540901 -0.990299 -2.258716
H -0.571192 -2.000927 -3.137706
H -0.528711 -3.199117 -1.790313
H 0.495470 -3.949968 -3.655839
H 2.213289 -3.001149 -0.799524
H 4.418476 0.639807 0.847613
H 6.229730 -0.087182 -1.510507
H 8.552335 0.613149 -1.129703
H 10.177146 2.242787 -0.261197
H 9.396435 4.983233 2.025071
H 7.053828 4.202558 1.949508
H 5.417334 2.607232 1.083806
H 0.152442 -3.384737 0.412527
H 1.032928 -3.498925 2.411785
H 0.569268 -0.545200 1.559376
H -1.443272 -2.535553 1.948548
