55

C -1.063329 5.188445 -0.446043
O -1.030806 3.890300 0.133713
C -1.532520 2.759518 -0.519047
O -2.041190 2.869531 -1.669551
C -1.406763 1.400966 0.159896
O -1.702449 1.601300 1.518516
C -2.381220 0.310779 -0.470416
C -1.594715 -0.806528 -1.269595
C -2.538637 -1.833625 -1.973971
C -3.204787 -2.855033 -1.010157
C -2.221030 -3.412654 0.036872
N -1.561252 -2.260181 0.634122
C -0.872686 -2.369795 1.897414
C -0.241404 -0.991813 2.034816
C 0.188673 -0.632657 0.572225
C 1.686225 -0.718918 0.588164
C 2.545798 -1.835356 0.631438
C 3.931763 -1.612897 0.804777
C 4.379240 -0.289474 0.951499
C 3.526309 0.772500 0.936904
C 2.162725 0.573631 0.780170
N 1.148248 1.567613 0.627254
C 0.047733 0.836203 -0.002577
C 0.342142 0.779697 -1.559628
C -0.696048 -0.091877 -2.297070
O 4.235451 1.946999 1.086346
C 5.624237 1.605012 1.209547
O 5.670530 0.172102 1.118996
C -0.667975 -1.583003 -0.293752
H -2.113468 5.489144 -0.646515
H -0.609526 5.914038 0.259618
H -0.482758 5.195814 -1.392832
H -2.658727 1.863743 1.584774
H -3.139061 0.775707 -1.135943
H -2.973078 -0.167069 0.339604
H -3.328189 -1.294823 -2.541059
H -1.949227 -2.417752 -2.714857
H -4.041261 -2.349734 -0.479862
H -3.636703 -3.694087 -1.596654
H -1.484090 -4.099927 -0.435443
H -2.787777 -3.972551 0.811886
H -0.096127 -3.166610 1.856374
H -1.591747 -2.568101 2.721093
H -1.004065 -0.321517 2.454504
H 0.592260 -1.027206 2.773090
H 2.154812 -2.840084 0.542746
H 4.628315 -2.440214 0.831723
H 1.347778 2.582964 0.487573
H 0.368060 1.798380 -2.001386
H 1.351908 0.361461 -1.763542
H -0.167598 -0.834468 -2.935604
H -1.317142 0.540714 -2.968561
H 6.014575 1.938933 2.193732
H 6.205172 2.059769 0.379973
H -0.014599 -2.307308 -0.835294
