47

C 5.723160 -1.765605 0.152193
C 4.666941 -1.182400 1.100705
C 5.190757 0.065133 1.831460
O 6.243928 -0.286992 2.686477
C 3.383110 -0.877037 0.350733
C 2.203314 -1.574848 0.663481
C 1.016719 -1.305293 -0.023672
C 0.990187 -0.341944 -1.043188
C -0.299539 -0.025440 -1.741853
O -1.034440 0.878435 -0.943732
C -2.357462 1.012240 -1.438329
O -3.132171 -0.153167 -1.185458
C -3.231920 -0.428152 0.204601
C -3.950047 -1.775317 0.383433
O -5.268929 -1.715086 -0.091010
C -3.967584 0.716479 0.944799
O -3.981572 0.465766 2.328027
C -3.239454 2.047072 0.686598
O -3.981095 3.120024 1.208665
C -3.024687 2.254778 -0.823038
O -4.254387 2.480190 -1.466796
C 2.160305 0.366997 -1.349889
C 3.348730 0.096952 -0.665592
H 6.623711 -2.075133 0.724010
H 6.028537 -1.021203 -0.614021
H 5.316819 -2.663133 -0.361881
H 4.462240 -1.955376 1.875702
H 5.542969 0.824474 1.097795
H 4.367316 0.510871 2.433546
H 6.553873 0.557797 3.105761
H 2.197838 -2.327969 1.442685
H 0.116671 -1.847562 0.240236
H -0.854671 -0.977790 -1.906740
H -0.089203 0.427538 -2.737096
H -2.338287 1.182143 -2.540772
H -2.217761 -0.555888 0.648267
H -3.968889 -2.054902 1.458064
H -3.383594 -2.574342 -0.147945
H -5.223100 -1.806574 -1.078012
H -5.008775 0.808052 0.552157
H -4.829394 -0.008796 2.531595
H -2.236943 2.016462 1.176828
H -3.846335 3.113461 2.192601
H -2.348921 3.129014 -0.979407
H -4.461822 3.445879 -1.367624
H 2.153848 1.129079 -2.119231
H 4.240010 0.651114 -0.928271
