50

C 5.124631 0.249549 -0.799798
O 3.970371 -0.232460 -0.110928
C 3.102442 -1.151856 -0.698511
O 3.560014 -2.252251 -1.107195
C 1.627772 -0.834882 -0.852529
C 0.718797 -2.162963 -0.852167
C -0.683976 -1.869943 -0.145992
C -0.378159 -1.717719 1.360784
C 0.863344 -0.805033 1.531470
C 1.046221 0.131880 0.246374
N 1.721997 1.349193 0.692557
C 0.661591 2.081253 1.324002
C 0.811972 3.002220 2.356248
C -0.337520 3.408743 3.054455
C -1.605545 2.885542 2.730652
C -1.740256 1.926783 1.711150
C -0.585564 1.537787 1.030889
C -0.363472 0.674572 -0.186065
C -0.795356 1.618068 -1.330949
C -2.320453 1.222188 -1.470087
N -2.508498 -0.098632 -0.779878
C -3.263255 -1.080884 -1.580006
C -3.059082 -2.528086 -1.052301
O -2.021118 -3.158865 -1.771400
C -1.768114 -2.947007 -0.399970
C -1.131159 -0.513802 -0.709510
H 5.944277 0.422694 -0.079240
H 5.485030 -0.488885 -1.550150
H 4.873776 1.204260 -1.316376
H 1.521415 -0.338753 -1.844890
H 1.220881 -3.001690 -0.328081
H 0.566823 -2.490858 -1.902699
H -1.247371 -1.256140 1.880655
H -0.180950 -2.711554 1.819132
H 1.770263 -1.435144 1.674644
H 0.766895 -0.243519 2.490778
H 2.578917 1.778430 0.273096
H 1.790846 3.372917 2.637851
H -0.251317 4.122938 3.858203
H -2.477323 3.193729 3.288425
H -2.708548 1.504578 1.462310
H -0.675479 2.706441 -1.126003
H -0.233265 1.403287 -2.268036
H -2.598859 1.198472 -2.548555
H -2.947777 1.985908 -0.966320
H -2.979114 -1.042700 -2.660949
H -4.338615 -0.827492 -1.522908
H -3.934962 -3.208265 -0.979011
H -1.759975 -3.901930 0.166180
H -0.833197 -0.680122 -1.790293
