62

C -1.058437 -0.331691 -3.058929
C -0.210090 -1.497066 -2.549824
C -0.746981 -2.874997 -3.075325
C -0.083979 -4.074683 -2.301034
O -0.989951 -5.144197 -2.236718
C 0.337769 -3.637800 -0.855017
C -0.783721 -2.743248 -0.308401
C -0.039779 -1.565827 -0.971947
O 0.067111 -0.328654 -0.279862
C -1.173364 0.183385 0.172747
O -1.437750 1.379058 -0.540955
C -2.711086 1.897816 -0.197546
C -3.053330 3.055247 -1.145710
O -3.090747 2.604494 -2.473546
C -2.723980 2.358097 1.280627
O -1.905204 3.486313 1.487491
C -2.309668 1.190038 2.198097
O -2.109022 1.668510 3.503309
C -1.031664 0.500867 1.675785
O -0.810778 -0.690756 2.385376
C 1.261933 -2.384668 -0.893343
C 2.117378 -2.190212 0.381502
O 2.535948 -0.832647 0.485778
C 3.120001 -0.299356 1.637177
O 3.522204 -1.065521 2.555690
C 3.233495 1.167526 1.783164
C 3.858696 1.733519 2.909371
C 3.935590 3.122919 3.050735
C 3.389712 3.959881 2.073928
C 2.766876 3.408132 0.952197
C 2.689598 2.019672 0.804033
C 1.964836 -2.027241 -2.158953
O 3.170932 -2.279639 -2.417931
O 1.118466 -1.391157 -3.037301
H -0.566276 0.633085 -2.819157
H -1.165350 -0.392169 -4.162800
H -2.070240 -0.361713 -2.602841
H -1.852312 -2.911907 -2.956387
H -0.540884 -2.976078 -4.163333
H 0.825803 -4.399256 -2.857279
H -0.472418 -5.939561 -1.946631
H 0.664215 -4.457995 -0.179397
H -0.762121 -2.701461 0.801212
H -1.811044 -2.937553 -0.684241
H -2.015880 -0.537149 0.032841
H -3.501785 1.122919 -0.338632
H -2.278692 3.848289 -1.069368
H -4.034010 3.506041 -0.866594
H -3.940667 2.100701 -2.579460
H -3.764708 2.647262 1.546770
H -0.987820 3.267956 1.177214
H -3.142851 0.446725 2.194571
H -2.203607 0.891980 4.113672
H -0.159575 1.186256 1.804559
H -0.271815 -0.458866 3.185663
H 1.531937 -2.463463 1.286522
H 3.008906 -2.852126 0.336843
H 4.284647 1.103503 3.681014
H 4.418069 3.551233 3.919657
H 3.449611 5.034903 2.186064
H 2.341298 4.056411 0.196524
H 2.196553 1.615920 -0.071672
