112

C -6.463239 2.226190 1.043998
C -5.259194 1.501712 1.579348
C -4.922395 0.226291 1.253491
C -5.885781 -0.641340 0.459221
N -5.247088 -1.652494 -0.416686
C -6.137899 -2.805169 -0.636442
C -3.850527 -2.053070 -0.113675
C -2.890059 -1.395277 -1.130217
C -3.070201 0.095262 -1.245907
C -2.535786 1.075970 -0.407715
N -3.019850 2.297187 -0.749459
C -3.861346 2.089446 -1.775333
C -4.650169 3.043032 -2.416159
C -5.533906 2.601731 -3.417010
C -5.609759 1.230795 -3.747374
C -4.799143 0.290613 -3.084894
C -3.925769 0.761677 -2.102549
C -1.668010 0.787506 0.797400
C -0.584055 1.854723 0.998742
C -0.859627 3.124947 1.595017
O -2.166974 3.435800 2.005532
C -2.563103 4.647020 2.639639
C 0.184367 4.071381 1.755303
C 1.480322 3.801482 1.308372
C 1.721830 2.582976 0.680821
C 2.904593 2.071289 0.161193
C 2.565494 0.777528 -0.304953
N 1.250390 0.546891 -0.049481
C 0.739989 1.642926 0.540102
C 3.441423 -0.330917 -0.913770
C 2.568265 -1.020233 -1.957444
O 2.322992 -0.428658 -3.045109
O 1.900567 -2.216996 -1.657004
C 0.970147 -2.820348 -2.550666
C 3.891756 -1.319473 0.233223
C 5.437120 -1.437485 0.303691
C 5.915391 -1.981528 -1.063965
C 5.645022 -0.918670 -2.177653
C 5.282211 -1.442936 -3.603306
C 4.762662 -2.881736 -3.705934
C 4.728115 0.223909 -1.607329
N 5.540503 0.874566 -0.566982
C 5.439483 2.329106 -0.444462
C 4.224525 2.786886 0.360214
C 6.054943 -0.018462 0.511821
C 5.839962 0.523923 1.947626
C 6.493476 -0.348146 2.990983
C 7.986134 -0.393777 3.137719
O 5.800319 -1.030709 3.731255
C -2.453058 0.433751 2.090312
C -3.740845 -0.442884 1.949201
C -3.441652 -1.863613 1.376435
C -4.069050 -2.958799 2.212138
O -5.190937 -2.786414 2.770313
O -3.411934 -4.190273 2.316347
C -3.985687 -5.311595 2.978856
H -7.396330 1.683982 1.318234
H -6.388644 2.338662 -0.060583
H -6.506916 3.244743 1.491497
H -4.652417 2.066219 2.277360
H -6.511014 -0.009104 -0.206152
H -6.584106 -1.118464 1.188247
H -7.138565 -2.455035 -0.970351
H -6.242636 -3.400134 0.295703
H -5.734474 -3.455201 -1.444395
H -3.717947 -3.142840 -0.320735
H -3.077786 -1.846313 -2.129552
H -1.835295 -1.652843 -0.893353
H -2.822678 3.216405 -0.304214
H -4.601974 4.088987 -2.139840
H -6.166567 3.315661 -3.930285
H -6.304711 0.897014 -4.506830
H -4.864483 -0.764419 -3.325932
H -1.153604 -0.157594 0.577355
H -2.366245 5.513692 1.977435
H -2.020020 4.763368 3.603738
H -3.650613 4.602502 2.855150
H 0.000865 5.032799 2.215664
H 2.263451 4.535883 1.438888
H 0.749280 -0.340399 -0.260081
H 1.465672 -3.054878 -3.516551
H 0.113055 -2.132399 -2.732696
H 0.592960 -3.759168 -2.101860
H 3.481491 -2.342973 0.100818
H 3.504247 -0.996842 1.223534
H 5.737511 -2.146528 1.104281
H 5.400830 -2.945968 -1.247040
H 7.004182 -2.207736 -1.016730
H 6.631584 -0.419343 -2.339322
H 4.557732 -0.758615 -4.090194
H 6.193349 -1.396791 -4.240002
H 5.581126 -3.604895 -3.506795
H 3.931551 -3.072007 -3.006992
H 4.392076 -3.068624 -4.736715
H 4.470989 0.945309 -2.413705
H 5.399094 2.789456 -1.456447
H 6.366742 2.726466 0.023625
H 4.074665 3.858929 0.108218
H 4.460007 2.786320 1.441259
H 7.155265 -0.102630 0.366218
H 4.758063 0.621856 2.175298
H 6.300660 1.529096 2.045120
H 8.276520 -0.066963 4.155921
H 8.346722 -1.431646 2.971376
H 8.476884 0.275936 2.402140
H -1.746566 -0.118461 2.754136
H -2.688685 1.316520 2.698154
H -4.069583 -0.563110 3.008081
H -2.346261 -2.052695 1.444040
H -4.235861 -5.051575 4.027604
H -4.901364 -5.635352 2.440547
H -3.256178 -6.143768 2.981854
