38

C 2.749933 0.697554 1.600115
C 3.514267 -0.197093 0.671321
C 2.964049 -0.958271 -0.297227
C 3.865877 -1.870832 -1.087301
C 1.502171 -1.020302 -0.559083
O 1.031150 -1.997179 -1.204348
O 0.647999 -0.003517 -0.115317
C -0.767268 -0.006804 -0.314404
C -1.233040 -0.062695 -1.787192
C -2.374253 0.884510 -1.356954
C -3.435841 -0.052313 -0.774207
O -4.655705 0.048599 -1.066955
C -2.924920 -1.096611 0.174997
C -1.590432 -1.070659 0.448743
C -1.000823 -1.987531 1.477820
C -1.457081 1.383617 -0.200237
C -2.120430 1.762177 1.153615
C -0.549565 2.560745 -0.644065
H 1.969654 0.119984 2.139161
H 2.291956 1.535320 1.034779
H 3.442673 1.130000 2.352132
H 4.586214 -0.243147 0.828540
H 3.476886 -2.006043 -2.118751
H 4.892225 -1.452883 -1.173090
H 3.919123 -2.860923 -0.588022
H -1.545053 -1.067406 -2.157561
H -0.519656 0.411885 -2.495361
H -2.711281 1.628324 -2.110809
H -3.596033 -1.793810 0.660847
H -1.068791 -3.037319 1.123696
H -1.559910 -1.887471 2.432000
H 0.061229 -1.743451 1.678122
H -2.830870 1.018833 1.557954
H -2.681422 2.713866 1.039197
H -1.331678 1.911038 1.921281
H -1.164705 3.472353 -0.800421
H 0.203860 2.776978 0.142772
H -0.000509 2.360473 -1.585786
