51

C -0.049635 2.552180 1.120776
C 1.355228 1.948701 1.240654
C 1.326834 0.449728 1.629627
C 1.089030 -0.511848 0.435893
O -0.222722 -0.349908 -0.080936
C -1.210193 -1.031023 0.682718
O -2.092832 -0.067363 1.250383
C -3.299514 0.162341 0.527944
C -3.818050 1.554218 0.919965
O -5.153715 1.710859 0.527067
C -3.115142 0.037149 -1.012357
O -4.297233 0.346699 -1.708993
C -2.617030 -1.376010 -1.403077
O -1.740284 -1.260723 -2.497545
C -1.915183 -2.069692 -0.211548
O -0.982349 -3.021710 -0.655363
C 2.110927 -0.246478 -0.710760
C 3.599518 -0.593726 -0.339618
C 3.747248 -2.020459 0.223323
C 4.537185 -0.447278 -1.554382
C 1.951152 1.216499 -1.188307
C 2.126722 2.167775 -0.037482
O 2.842503 3.150046 -0.160620
H -0.600394 2.128123 0.256981
H 0.024136 3.651325 0.976296
H -0.631560 2.365809 2.047969
H 1.873060 2.491300 2.063057
H 0.561183 0.276841 2.415934
H 2.298637 0.190932 2.101798
H 1.230208 -1.560718 0.774764
H -0.788105 -1.601448 1.543310
H -4.052985 -0.584116 0.867341
H -3.751768 1.668041 2.025489
H -3.186153 2.341227 0.450457
H -5.411884 2.632394 0.790007
H -2.346151 0.783456 -1.313676
H -5.007067 -0.266319 -1.382093
H -3.493208 -2.007311 -1.687124
H -1.817126 -2.098036 -3.025727
H -2.684740 -2.581104 0.414238
H -1.504468 -3.790384 -1.004816
H 1.821123 -0.903792 -1.561491
H 3.962619 0.110642 0.439681
H 3.242338 -2.756746 -0.437477
H 4.817833 -2.302582 0.314550
H 3.326240 -2.086158 1.247285
H 5.553062 -0.829750 -1.317552
H 4.142439 -1.011284 -2.426567
H 4.669362 0.617929 -1.830998
H 2.648187 1.461432 -2.013854
H 0.932717 1.360322 -1.608598
