67

O -1.489549 2.789439 1.057478
C -0.800085 1.935464 0.519835
C -0.883837 0.479867 0.964021
C -2.321681 0.015572 0.754866
C -2.760621 -1.197478 1.124597
O -4.066278 -1.667412 0.895901
C -5.075994 -1.054104 0.086697
O -5.378733 0.241670 0.592767
C -5.867877 1.159229 -0.382578
C -6.665632 2.256302 0.342578
O -7.821360 1.730974 0.940446
C -6.709012 0.481334 -1.494934
O -7.213816 1.450547 -2.377543
C -5.846347 -0.537367 -2.276382
O -6.677021 -1.580792 -2.721636
C -4.685079 -1.086831 -1.411760
O -4.363955 -2.398929 -1.802324
C -0.486272 0.420347 2.482413
C 0.452819 -0.745212 2.833277
C 1.751949 -0.739132 1.986779
C 2.869481 0.059537 2.688698
O 4.066228 0.059457 1.911238
C 4.897368 -1.058691 1.769841
O 4.677072 -2.107623 2.434179
C 6.038552 -1.025994 0.842583
C 6.323667 0.060246 0.110653
C 7.444957 0.142433 -0.860402
C 7.446297 1.196958 -1.791662
C 8.480373 1.322533 -2.724265
C 9.527965 0.399762 -2.736159
C 9.547640 -0.645736 -1.810396
C 8.517656 -0.774792 -0.872462
C 1.528685 -0.226412 0.538806
C 0.072286 -0.401334 0.087697
O -0.034870 -0.078823 -1.277071
H -0.123910 2.241607 -0.271546
H -3.001100 0.695344 0.265765
H -2.088967 -1.870655 1.633902
H -5.989813 -1.677226 0.204397
H -4.995958 1.662082 -0.859741
H -6.019853 2.742474 1.109292
H -6.963658 3.048464 -0.376874
H -7.533396 1.292002 1.783121
H -7.556913 -0.050937 -1.001788
H -7.937618 1.012737 -2.897984
H -5.395999 -0.015920 -3.155231
H -6.270085 -1.943258 -3.551688
H -3.802456 -0.426971 -1.577462
H -3.418532 -2.555984 -1.543889
H -1.391822 0.356899 3.125356
H 0.035962 1.353600 2.792438
H 0.690826 -0.709646 3.919250
H -0.079482 -1.704838 2.671006
H 2.090452 -1.797146 1.920740
H 2.541835 1.111800 2.827238
H 3.078438 -0.363752 3.696040
H 6.624515 -1.928919 0.751556
H 5.681609 0.929544 0.197116
H 6.640649 1.921234 -1.802226
H 8.468050 2.135766 -3.438945
H 10.327621 0.498347 -3.458986
H 10.366230 -1.354436 -1.813971
H 8.583705 -1.580316 -0.155129
H 2.198485 -0.786582 -0.150621
H 1.804111 0.848556 0.455236
H -0.172826 -1.482630 0.213775
H -0.885078 -0.476246 -1.600460
