66

C 9.014856 -2.188246 -0.533296
O 8.500586 -0.859923 -0.507231
C 7.168429 -0.532282 -0.211095
C 6.194208 -1.509140 0.065589
C 4.879710 -1.131703 0.357498
C 4.515131 0.224765 0.381091
C 3.119680 0.617532 0.673406
O 2.798157 1.837400 0.703835
O 2.159748 -0.370402 0.923411
C 0.752113 -0.135066 0.919247
C 0.178014 -0.317527 -0.502639
C 0.603352 -1.566781 -1.255391
O 1.253483 -1.101028 -2.427088
C 0.489117 0.033755 -2.787364
O 1.120152 0.779506 -3.792420
C -0.911747 -0.508868 -3.232882
C -1.480298 -1.165864 -1.921744
C -2.900858 -1.684635 -2.138874
O -0.598061 -2.228567 -1.618677
C -1.330333 -0.172490 -0.705208
O -2.119563 -0.541286 0.432918
C -2.539661 0.520281 1.275912
O -2.734318 0.020786 2.595362
C -4.023886 -0.503685 2.888785
C -4.193031 -1.950857 2.391171
O -4.417299 -1.992987 1.011429
C -5.211707 0.434419 2.517796
O -5.933857 0.775934 3.675457
C -4.720509 1.704075 1.813572
O -4.081929 2.550370 2.737172
C -3.750082 1.308165 0.696228
O -4.418685 0.542305 -0.273507
C -1.089956 1.291784 -1.166889
C 0.356173 0.852915 -1.466391
C 5.492154 1.197080 0.104953
C 6.804463 0.818174 -0.189718
H 10.090009 -2.155985 -0.803859
H 8.913260 -2.656602 0.468562
H 8.474325 -2.790711 -1.293982
H 6.442452 -2.562020 0.058212
H 4.149607 -1.903538 0.562852
H 0.525310 0.872827 1.325157
H 0.280993 -0.885496 1.588143
H 1.265828 -2.241007 -0.672155
H 1.267958 0.162948 -4.556860
H -0.785503 -1.282207 -4.022763
H -1.568776 0.280650 -3.652512
H -3.251500 -2.237172 -1.247049
H -3.590666 -0.841934 -2.347561
H -2.921452 -2.381817 -3.002463
H -1.720653 1.246823 1.419923
H -4.034652 -0.600317 3.996419
H -3.280321 -2.536096 2.639526
H -5.058037 -2.411349 2.920686
H -4.640679 -2.936660 0.796409
H -5.900812 -0.099093 1.821606
H -6.789955 1.177322 3.373752
H -5.601246 2.229529 1.374350
H -4.045175 3.452682 2.320779
H -3.370798 2.240552 0.218554
H -4.996892 1.164325 -0.787619
H -1.693225 1.649354 -2.024173
H -1.058154 2.071696 -0.382059
H 1.169138 1.571560 -1.236522
H 5.242270 2.250892 0.112555
H 7.543598 1.580206 -0.402327
