76

C -2.844688 2.563744 0.552264
C -1.515930 1.883597 0.389549
C -1.292471 0.533006 0.392436
C -2.363778 -0.548788 0.563135
O -3.629670 -0.028543 0.929069
C -4.701616 -0.585188 0.173616
O -4.865074 0.207205 -0.995302
C -6.116903 0.076982 -1.665177
C -6.861051 1.418958 -1.526206
O -7.891783 1.525847 -2.472513
C -6.961490 -1.159782 -1.238066
O -8.140869 -1.246247 -2.008857
C -7.218051 -1.144923 0.290276
O -7.576692 -2.445021 0.706894
C -5.974262 -0.645229 1.075464
O -6.286660 0.598000 1.673110
O -1.956041 -1.457708 1.597577
C -0.632217 -1.621706 2.035123
C 0.395050 -0.960777 1.471023
C 1.752251 -1.132565 2.059545
O 1.877235 -1.114969 3.315757
O 2.905734 -1.257260 1.284172
C 3.027033 -2.106731 0.149434
C 4.435897 -1.972276 -0.485158
C 5.518771 -2.445359 0.502167
C 4.697557 -0.547964 -1.102957
C 5.922129 -0.515877 -2.063384
O 5.528145 -0.200464 -3.368593
C 6.867873 0.576373 -1.548989
C 6.477112 0.787520 -0.097628
C 7.048748 2.075967 0.524926
C 4.943405 0.593294 -0.063265
C 4.108795 1.879781 -0.396184
O 3.229027 2.203522 0.683804
C 1.917048 1.724795 0.845798
O 1.277940 2.060047 1.877749
C 1.240985 0.879958 -0.213169
C 0.109064 -0.082733 0.248535
H -2.707897 3.667662 0.488589
H -3.538608 2.271777 -0.263790
H -3.274514 2.345846 1.556578
H -0.684150 2.570192 0.279658
H -2.380980 -1.107007 -0.401687
H -4.481986 -1.641842 -0.125938
H -5.885293 -0.053644 -2.742937
H -7.259350 1.547274 -0.493662
H -6.134354 2.242385 -1.704493
H -8.470224 2.273887 -2.149556
H -6.359412 -2.068521 -1.472575
H -8.915692 -1.434154 -1.421717
H -8.070721 -0.453095 0.491946
H -8.037028 -2.348510 1.586065
H -5.753979 -1.367597 1.897456
H -5.458475 1.000035 2.051548
H -0.459692 -2.286268 2.877541
H 2.239880 -1.895374 -0.604246
H 2.867965 -3.155232 0.480822
H 4.444719 -2.689221 -1.337207
H 5.513702 -1.834294 1.427263
H 6.527462 -2.385372 0.043737
H 5.338655 -3.504619 0.784475
H 3.803640 -0.332892 -1.720363
H 6.472582 -1.479653 -2.071169
H 5.136119 -1.028813 -3.758449
H 7.931326 0.274583 -1.638584
H 6.715918 1.524705 -2.110177
H 6.927967 -0.050819 0.483798
H 6.885093 2.972881 -0.109201
H 6.589207 2.246930 1.519901
H 8.149131 1.965964 0.676302
H 4.684316 0.279362 0.968623
H 3.541162 1.814875 -1.350884
H 4.759236 2.751217 -0.568152
H 2.004130 0.261190 -0.698581
H 0.875310 1.539175 -1.028596
H 0.014282 -0.801502 -0.598693
