77

C -3.153127 -3.025891 -0.755843
O -3.330579 -1.988014 0.182475
C -2.127965 -1.255852 0.336513
O -1.135425 -2.029630 0.999051
C -1.025378 -1.519607 2.310945
C 0.325170 -1.920095 2.926728
C -2.196770 -2.198485 3.135009
C -3.486867 -1.422641 2.921771
O -4.577900 -1.898967 3.190986
C -3.338099 -0.007631 2.402107
C -2.204731 0.585561 3.241398
C -1.240563 0.044490 2.177322
O -0.120841 0.919496 2.008630
C 0.625802 0.747241 0.814778
O 1.782217 -0.016181 1.111233
C 2.751193 -0.093469 0.063267
C 4.086415 0.439334 0.601807
O 5.135836 0.163511 -0.321733
C 6.460821 0.553298 -0.101728
O 6.773475 1.155277 0.962884
C 7.492267 0.260180 -1.120958
C 7.143460 -0.399896 -2.313647
C 8.116343 -0.677390 -3.279005
C 9.443905 -0.298466 -3.065651
C 9.802218 0.357959 -1.885787
C 8.833530 0.637410 -0.916483
C 2.362048 0.599370 -1.279883
O 1.409875 -0.185253 -1.956749
C 1.804223 2.023729 -1.042861
O 0.958963 2.393938 -2.104684
C 1.056678 2.137866 0.309295
O -0.052585 2.992427 0.205856
C -2.378091 0.032683 1.162937
C -2.604116 1.309086 0.311894
O -3.949131 1.351934 -0.162375
C -4.392827 0.693529 -1.315548
O -3.560346 0.225540 -2.139532
C -5.843323 0.556248 -1.567807
C -6.775276 1.071723 -0.648026
C -8.147180 0.931663 -0.878123
C -8.602535 0.276343 -2.024613
C -7.686873 -0.240690 -2.943553
C -6.313516 -0.104116 -2.718694
H -2.887648 -2.624847 -1.758478
H -4.112402 -3.572249 -0.861470
H -2.387619 -3.754687 -0.411683
H -1.723660 -0.969050 -0.660489
H 1.107172 -2.015250 2.151593
H 0.260650 -2.920950 3.404210
H 0.637464 -1.186120 3.698656
H -2.334606 -3.252736 2.807923
H -1.968982 -2.206445 4.223384
H -4.267829 0.600546 2.357631
H -2.052858 0.181102 4.267565
H -2.241805 1.698208 3.251138
H 0.038899 0.241011 0.029315
H 2.909905 -1.173109 -0.151515
H 4.314464 -0.059508 1.569377
H 4.019124 1.534225 0.778653
H 6.120642 -0.702159 -2.501869
H 7.839795 -1.185866 -4.193955
H 10.194565 -0.512326 -3.815413
H 10.831354 0.652022 -1.722287
H 9.133823 1.147312 -0.009347
H 3.260972 0.695021 -1.933710
H 1.894731 -0.961720 -2.342018
H 2.662336 2.736007 -1.003563
H 1.542759 2.570334 -2.888403
H 1.757603 2.555708 1.071325
H 0.303358 3.916794 0.140395
H -1.898893 1.368222 -0.542829
H -2.441445 2.211047 0.936981
H -6.445574 1.579154 0.250138
H -8.858470 1.330348 -0.165894
H -9.665230 0.168833 -2.200999
H -8.041228 -0.749620 -3.830838
H -5.621762 -0.516814 -3.442771
