52

C 1.941689 -3.157874 -2.424116
C 1.475367 -1.984065 -1.605115
C 2.133271 -1.697421 -0.468019
C 1.771988 -0.601402 0.442968
O 1.289387 -0.883259 1.571141
C 2.057864 0.836450 0.090115
C 3.348796 1.405410 0.742326
C 3.248899 1.381808 2.276438
C 4.594019 0.609134 0.300553
O 3.496228 2.749574 0.353789
C 0.229944 -1.243682 -2.045911
C -1.043423 -1.945877 -1.558437
O -1.122790 -1.917973 -0.141687
C -2.080154 -0.974128 0.302544
O -1.640955 0.334392 -0.023894
C -2.628994 1.294444 0.305072
C -2.171199 2.657406 -0.217700
O -1.999092 2.596542 -1.605804
C -2.837178 1.336071 1.841558
O -3.795969 2.294800 2.219784
C -3.223184 -0.059525 2.372922
O -4.534230 -0.379033 1.973005
C -2.225332 -1.105490 1.833046
O -2.594231 -2.407394 2.209157
H 2.969813 -2.969150 -2.798010
H 1.281805 -3.330639 -3.296888
H 1.937297 -4.075801 -1.803409
H 2.962814 -2.331338 -0.164685
H 2.145865 0.931856 -1.013554
H 1.185613 1.456985 0.397365
H 3.246319 0.337168 2.661018
H 4.117535 1.908996 2.729070
H 2.323896 1.895761 2.611024
H 5.519372 1.076359 0.708033
H 4.671410 0.591696 -0.804495
H 4.548211 -0.439186 0.660653
H 3.641686 2.773412 -0.622646
H 0.229721 -0.186133 -1.712082
H 0.211629 -1.205781 -3.157955
H -1.015872 -3.007082 -1.883611
H -1.920845 -1.492139 -2.071461
H -3.068912 -1.193476 -0.167289
H -3.589754 1.051906 -0.203539
H -1.210073 2.939396 0.264596
H -2.934033 3.427143 0.024333
H -1.727533 3.503363 -1.887462
H -1.869691 1.624169 2.311849
H -4.623122 2.121002 1.698663
H -3.158740 -0.032649 3.487390
H -4.920441 -0.959416 2.675257
H -1.236547 -0.897274 2.291960
H -3.408144 -2.658055 1.699683
