90

C -0.959792 2.215368 -0.123431
C -1.140282 0.793334 0.356958
C -0.217498 -0.163890 0.108414
C 1.073566 0.089882 -0.620238
O 1.894459 0.926887 0.169427
C 3.102257 1.243842 -0.501171
O 3.546251 2.492687 -0.006542
C 4.614487 3.000900 -0.792080
C 5.056004 4.327471 -0.164719
C 5.776682 1.958891 -0.945972
O 7.048518 2.542971 -0.797198
C 5.575005 0.757689 0.010778
O 6.547478 -0.251531 -0.229294
C 7.732232 -0.098922 0.547254
O 8.798888 0.388631 -0.254407
C 9.091943 -0.485375 -1.335248
C 10.153707 0.180325 -2.212945
C 9.589140 -1.851805 -0.815417
O 9.814525 -2.718169 -1.898247
C 8.526503 -2.461223 0.117922
O 8.995604 -3.650797 0.703615
C 8.112774 -1.441985 1.197780
O 7.019393 -1.929613 1.932419
C 4.167316 0.149838 -0.213743
O 4.192660 -0.749893 -1.295663
C -2.404415 0.428188 1.100450
C -3.443215 -0.163002 0.141760
C -4.743422 -0.430609 0.857632
C -5.728661 0.481954 1.019144
C -5.634274 1.872763 0.432654
C -6.966117 0.082853 1.785753
O -7.654667 -0.914323 1.057321
C -8.911236 -1.190820 1.656479
O -9.869953 -0.203376 1.304906
C -10.106119 -0.097322 -0.099396
C -9.319805 1.081340 -0.683982
C -9.871094 -1.406796 -0.907767
O -10.659221 -1.414394 -2.070889
C -10.230281 -2.619201 -0.044903
O -11.606884 -2.589311 0.244037
C -9.409206 -2.608689 1.272083
O -8.336586 -3.518884 1.216172
H -0.068748 2.672492 0.355496
H -0.840262 2.232198 -1.227107
H -1.843868 2.839258 0.126540
H -0.407383 -1.181286 0.443445
H 1.573795 -0.888466 -0.789003
H 0.842088 0.548806 -1.607046
H 2.936512 1.335501 -1.606140
H 4.232471 3.257205 -1.807914
H 5.852755 4.805566 -0.772647
H 5.419889 4.166670 0.872062
H 4.193057 5.026284 -0.126765
H 5.728149 1.557548 -1.982544
H 7.186373 2.732848 0.167108
H 5.586248 1.126409 1.063776
H 7.613574 0.617044 1.392537
H 8.194101 -0.632104 -1.978007
H 11.092984 0.334596 -1.640334
H 10.368870 -0.443655 -3.106308
H 9.784980 1.169151 -2.559571
H 10.535657 -1.688627 -0.245735
H 10.476836 -3.391132 -1.594554
H 7.629301 -2.715042 -0.490103
H 9.798491 -3.425853 1.243143
H 8.976114 -1.255450 1.880408
H 7.379994 -2.586627 2.583776
H 3.881877 -0.390622 0.722851
H 4.415780 -1.645551 -0.927951
H -2.173428 -0.303816 1.906705
H -2.817674 1.328695 1.601429
H -3.600720 0.506595 -0.730567
H -3.058449 -1.128938 -0.251486
H -4.870959 -1.422955 1.283839
H -4.747807 2.405311 0.832554
H -5.562735 1.811619 -0.673475
H -6.530555 2.480355 0.678011
H -6.654634 -0.310888 2.780546
H -7.615623 0.971786 1.956618
H -8.821671 -1.196033 2.768945
H -11.182879 0.161741 -0.206501
H -9.687513 1.320182 -1.704167
H -8.237485 0.849301 -0.748266
H -9.456318 1.979737 -0.045645
H -8.795233 -1.499179 -1.190264
H -10.189306 -0.853400 -2.742099
H -9.998253 -3.541709 -0.628732
H -11.867281 -3.514252 0.493688
H -10.076559 -2.958441 2.090910
H -7.811218 -3.318754 0.397271
