30

C -0.602253 -1.606891 2.128550
C -0.509892 -0.425094 1.510305
C -0.375363 -0.311032 0.000231
C 0.880334 0.550390 -0.338177
O 1.107530 0.563718 -1.722604
C 2.126004 0.003567 0.348422
C 2.691174 0.670895 1.366430
C 2.716788 -1.314243 -0.080579
C -1.730214 0.188911 -0.634021
C -1.716220 0.050003 -2.169636
C -2.046931 1.664542 -0.283802
O -2.780208 -0.639425 -0.180502
H -0.578764 -2.537539 1.570302
H -0.703541 -1.646769 3.208090
H -0.546506 0.480035 2.109299
H -0.188765 -1.330226 -0.408492
H 0.694298 1.592774 0.009808
H 1.720114 1.323353 -1.907394
H 3.570615 0.277487 1.867773
H 2.282729 1.614027 1.716085
H 2.157037 -1.746729 -0.935836
H 3.772749 -1.169578 -0.392468
H 2.679786 -2.034805 0.763717
H -2.748153 0.158118 -2.568692
H -1.339050 -0.949940 -2.473034
H -1.102083 0.835563 -2.655122
H -3.063673 1.929080 -0.646007
H -2.024118 1.831749 0.812758
H -1.326510 2.359337 -0.764011
H -3.016914 -0.381278 0.748606
