104

C -5.634966 2.556802 -1.363570
C -4.817857 1.587003 -1.791527
C -3.684209 1.065034 -0.926331
C -4.184773 -0.151498 -0.129442
O -5.091339 0.296786 0.871146
C -6.366065 -0.311782 0.782838
O -7.273598 0.516183 1.496409
C -8.389084 -0.140203 2.095124
C -9.523140 0.886835 2.220513
O -10.496855 0.439996 3.125276
C -8.842741 -1.393900 1.309193
O -9.991623 -1.978230 1.871086
C -7.702967 -2.435153 1.223755
O -7.830142 -3.144176 0.013341
C -6.311191 -1.762091 1.321245
O -5.870142 -1.744827 2.665492
O -3.102635 -0.810607 0.536038
C -1.769067 -0.734971 0.129489
C -1.371230 0.023118 -0.907688
C 0.095210 0.114120 -1.161169
O 0.544329 0.503184 -2.272955
O 0.984862 -0.236889 -0.129755
C 2.394163 0.033422 -0.180350
C 3.099386 -0.964852 -1.097251
C 3.422343 -2.154982 -0.200933
C 4.469800 -3.097187 -0.775956
C 4.160119 -3.841291 -2.022989
O 5.037732 -4.557615 -2.582672
O 2.892458 -3.721287 -2.603653
C 2.492311 -4.477268 -3.738052
C 5.597926 -3.354128 -0.089661
O 5.903346 -2.671350 1.088246
C 5.300128 -1.422770 1.389421
O 5.868581 -0.455029 0.510919
C 6.440785 0.648966 1.208672
O 6.459679 1.743340 0.314662
C 6.781532 2.970466 0.972806
C 5.477906 3.752348 1.293734
O 5.443663 4.233354 2.620027
C 7.782218 2.796830 2.168361
O 8.514187 3.973904 2.417830
C 8.725787 1.601641 1.906909
O 9.516239 1.854226 0.756837
C 7.893586 0.317245 1.673128
O 7.882938 -0.484039 2.830944
C 3.770174 -1.540124 1.170741
C 3.030768 -0.174453 1.209558
C 2.036870 -0.088647 2.377462
C -2.442949 0.690307 -1.784342
C -1.942053 1.932400 -2.584681
C -1.683435 1.609557 -4.064218
O -1.030776 2.689310 -4.688254
O -2.925375 1.336010 -4.708657
C -2.692911 0.582580 -5.891076
H -6.457202 2.887714 -1.991975
H -5.499793 3.028478 -0.394146
H -5.000392 1.125051 -2.765842
H -3.367891 1.867953 -0.213801
H -4.633143 -0.887943 -0.851901
H -6.721838 -0.315676 -0.279471
H -8.088680 -0.441364 3.127749
H -9.119670 1.843858 2.624826
H -9.962814 1.100644 1.225578
H -11.386800 0.565383 2.707358
H -9.109204 -1.052902 0.282739
H -9.786392 -2.193175 2.817414
H -7.800168 -3.148781 2.070923
H -7.330455 -4.000011 0.136507
H -5.593139 -2.353631 0.715736
H -5.547929 -2.663415 2.865807
H -1.052168 -1.279596 0.719527
H 2.561455 1.082694 -0.524921
H 2.465870 -1.259438 -1.967559
H 4.042035 -0.521064 -1.489664
H 2.481932 -2.740494 -0.063864
H 1.463338 -4.171070 -4.021756
H 2.499222 -5.561126 -3.498356
H 3.171710 -4.286769 -4.584633
H 6.287821 -4.113784 -0.439322
H 5.474956 -1.217150 2.471524
H 5.809196 0.927957 2.097969
H 7.312691 3.564045 0.195388
H 4.591657 3.117385 1.107688
H 5.394310 4.617384 0.604876
H 4.710202 4.906279 2.636240
H 7.219335 2.570927 3.101606
H 8.956377 4.236363 1.563993
H 9.379673 1.462382 2.806667
H 10.417406 2.101594 1.091355
H 8.389629 -0.285667 0.877865
H 7.429301 0.029104 3.548045
H 3.382413 -2.221423 1.959524
H 3.757019 0.650942 1.343192
H 2.593421 -0.156091 3.344323
H 1.497449 0.880483 2.341488
H 1.299838 -0.918454 2.328294
H -2.773821 -0.093937 -2.498200
H -1.040370 2.369256 -2.109917
H -2.686768 2.764426 -2.569871
H -1.013508 0.730562 -4.119214
H -1.698301 3.423830 -4.762509
H -2.341607 -0.449178 -5.628989
H -1.971915 1.087004 -6.573307
H -3.652191 0.484821 -6.459389
