47

C -4.216120 0.006826 0.245133
C -3.561048 -0.894244 -0.763117
C -2.348996 -0.659360 -1.314842
C -1.825995 -1.632218 -2.360587
N -0.362768 -1.549192 -2.591150
C 0.468806 -2.368200 -1.663429
C 0.136123 -2.149992 -0.174142
C 0.586244 -0.689892 -0.014493
C 1.763258 -0.443497 0.888933
C 1.889349 -0.689171 2.256901
C 3.054854 -0.252735 2.908006
C 4.058306 0.430333 2.191288
C 3.902794 0.685207 0.818341
C 2.737094 0.246214 0.192246
N 2.415296 0.393537 -1.185635
C 1.282526 -0.499625 -1.389949
O 1.724556 -1.781207 -1.731764
C 0.284160 -0.219536 -2.496861
C -0.669890 0.929445 -2.176144
C -1.512579 0.557902 -0.959395
C -0.617344 0.286592 0.282591
C -0.203741 1.593468 0.929894
O 0.505581 2.427029 0.302699
O -0.592512 1.851940 2.247783
C -0.189262 3.021260 2.949299
H -4.421291 1.000449 -0.204752
H -5.183044 -0.435472 0.563906
H -3.574142 0.123457 1.141752
H -4.114304 -1.780701 -1.062641
H -2.096922 -2.676454 -2.086263
H -2.343416 -1.414866 -3.318742
H 0.493883 -3.438359 -1.959247
H -0.926047 -2.345409 0.074586
H 0.760263 -2.829529 0.447699
H 1.102476 -1.190975 2.804635
H 3.178659 -0.433906 3.967683
H 4.952097 0.763882 2.702184
H 4.668044 1.210474 0.262005
H 3.089900 0.688214 -1.926084
H 0.822094 -0.003432 -3.446080
H -1.331660 1.114427 -3.051350
H -0.096308 1.863373 -2.008139
H -2.182829 1.422033 -0.758207
H -1.247888 -0.218819 1.046319
H -0.619307 2.999489 3.971512
H -0.557405 3.926923 2.422377
H 0.918455 3.054313 3.025240
