40

C 4.761843 1.126494 -1.404517
O 4.573680 -0.025185 -0.588271
C 3.329206 -0.479077 -0.121401
C 2.127020 0.182540 -0.440318
C 0.893930 -0.284946 0.051100
C 0.867514 -1.474890 0.816241
C 2.066044 -2.119982 1.146168
C 3.289209 -1.628695 0.685427
O 4.458675 -2.304191 1.034729
C -0.450879 -2.037141 1.302871
C -1.544112 -1.789452 0.254970
N -2.821147 -2.404236 0.687803
C -3.806459 -1.452087 1.215541
C -4.120037 -0.369021 0.181605
C -2.860622 0.368220 -0.152346
C -2.906124 1.729352 -0.508905
C -1.701275 2.395381 -0.693392
C -0.498842 1.776453 -0.547858
C -0.398052 0.410927 -0.233035
C -1.614026 -0.301877 -0.057403
O 0.504713 2.713338 -0.720653
C -0.097851 3.979139 -1.015003
O -1.507785 3.731767 -0.985384
H 4.393114 2.032336 -0.878329
H 5.844602 1.251653 -1.610080
H 4.229541 1.000872 -2.370973
H 2.155427 1.038392 -1.093387
H 2.051222 -3.014931 1.756471
H 5.373466 -1.995123 0.728852
H -0.363130 -3.131586 1.480861
H -0.724733 -1.547155 2.262485
H -1.217189 -2.297498 -0.682468
H -3.253291 -2.898526 -0.128833
H -4.741467 -1.996481 1.469847
H -3.420284 -0.991952 2.152167
H -4.876831 0.325899 0.606550
H -4.536641 -0.827555 -0.740854
H -3.845634 2.260204 -0.596305
H 0.209680 4.324276 -2.024331
H 0.177528 4.724344 -0.239643
