47

C 4.315337 1.208329 1.502683
C 3.913999 0.017560 0.681881
C 2.649349 -0.455472 0.589247
C 2.382512 -1.645154 -0.307329
N 1.214312 -2.492828 0.091021
C 0.551501 -2.977239 -1.127464
C -0.397863 -1.869038 -1.575604
C -0.716224 -1.092094 -0.285436
C -0.409403 0.398666 -0.411642
C 0.638251 0.998311 0.206097
C 0.899701 2.440795 0.003441
O 1.420791 3.125687 0.925563
O 0.585565 3.037501 -1.222306
C 0.809988 4.417328 -1.483682
C 1.465107 0.226218 1.232581
C 0.618604 -0.853973 1.890225
C 0.115343 -1.800176 0.800072
N -1.613735 1.123256 -0.692702
C -2.666526 0.223476 -0.384137
C -4.026852 0.533657 -0.327616
O -4.471673 1.820365 -0.621790
C -4.928975 -0.485341 0.031347
C -4.458711 -1.780481 0.322388
C -3.085406 -2.066665 0.265162
C -2.201268 -1.035234 -0.065775
H 5.410906 1.365606 1.417197
H 4.070639 1.038969 2.572189
H 3.804928 2.119157 1.131686
H 4.709468 -0.492157 0.144149
H 2.283915 -1.234865 -1.338059
H 3.275960 -2.306861 -0.319759
H 1.273035 -3.253561 -1.929972
H -0.032826 -3.892591 -0.882399
H 0.106966 -1.220883 -2.325668
H -1.297385 -2.313658 -2.057366
H 1.891492 4.651269 -1.388275
H 0.481095 4.650534 -2.517045
H 0.226697 5.038502 -0.771400
H 1.781375 0.908690 2.048076
H -0.245167 -0.394320 2.420487
H 1.218514 -1.419076 2.638120
H -0.505725 -2.574312 1.304399
H -1.726346 2.160607 -0.724626
H -5.455509 2.059767 -0.585172
H -5.990430 -0.279007 0.080347
H -5.160357 -2.561809 0.583970
H -2.724971 -3.067458 0.462898
