55

C -2.596334 0.948874 2.254010
C -1.794531 -0.149946 1.543406
C -2.261426 -0.477802 0.081019
C -2.411218 0.816815 -0.780401
C -1.115026 1.598111 -0.806917
C -1.142895 3.076979 -0.706289
O -0.147869 3.759959 -1.074186
O -2.299128 3.719837 -0.251842
C -2.398780 5.134440 -0.141258
C 0.034710 0.898421 -0.866711
N 1.282436 1.374521 -0.350217
C 2.028539 0.206418 -0.057429
C 3.272131 0.164581 0.571489
C 3.869186 -1.095164 0.806753
O 5.125048 -1.223959 1.418154
C 5.667539 -0.327876 2.348165
C 7.112999 -0.428475 2.698908
O 4.935487 0.494041 2.963256
C 3.209591 -2.266777 0.379893
C 1.953607 -2.197734 -0.242982
C 1.369606 -0.943676 -0.431831
C 0.074854 -0.602026 -1.116414
C 0.167989 -0.890295 -2.633497
C -0.872485 -1.953574 -2.941433
N -1.683298 -2.078487 -1.746748
C -2.960311 -2.713423 -1.748526
O -3.278849 -3.509637 -2.671675
C -3.948402 -2.373155 -0.693430
O -4.465062 -1.083907 -0.917297
C -3.629914 -1.235361 0.210378
C -1.162527 -1.383901 -0.580105
H -3.688220 0.769875 2.189258
H -2.311502 0.973813 3.326778
H -2.364251 1.942853 1.821666
H -0.725989 0.150117 1.566485
H -1.856474 -1.074836 2.159484
H -3.247005 1.432959 -0.388244
H -2.673627 0.551367 -1.827673
H -1.630219 5.515096 0.563928
H -3.404455 5.400112 0.244361
H -2.258937 5.604596 -1.138195
H 1.486300 2.316983 0.049010
H 3.768489 1.087521 0.837437
H 7.237294 -1.118462 3.558563
H 7.686060 -0.819417 1.832173
H 7.511793 0.571304 2.968920
H 3.672681 -3.232601 0.537218
H 1.452287 -3.098047 -0.573902
H 1.177517 -1.241361 -2.943938
H -0.063805 0.020500 -3.230731
H -0.388271 -2.928396 -3.165317
H -1.501006 -1.639901 -3.803642
H -4.746565 -3.088038 -0.403474
H -4.219820 -1.194149 1.149670
H -0.847942 -2.159711 0.153922
