65

C -2.610455 2.560453 0.623139
C -3.649868 1.439205 0.673613
C -3.926231 0.973726 2.151042
C -4.939942 -0.215849 1.978796
O -5.242199 -0.840445 3.196079
O -6.100690 0.352844 1.410662
C -5.675951 0.714237 0.105880
O -4.894622 1.895112 0.178665
C -4.722687 -0.380670 -0.335217
C -5.115816 -1.132015 -1.625590
O -4.174254 -2.116718 -1.951743
C -4.432725 -1.226432 0.895938
C -2.930080 -1.079131 0.606699
C -3.307551 0.183151 -0.212706
O -2.722043 0.449378 -1.482092
C -1.362909 0.056681 -1.567380
O -0.625874 0.566718 -0.463922
C 0.793966 0.478619 -0.581850
C 1.337470 -0.030351 0.760035
O 2.755192 0.096548 0.806272
C 3.517755 -0.295765 1.911024
O 2.947751 -0.730785 2.949922
C 4.993476 -0.204451 1.853862
C 5.779672 -0.572638 2.959489
C 7.177953 -0.495405 2.896677
O 7.953268 -0.862713 3.995497
C 7.804027 -0.048996 1.726265
O 9.197061 0.018233 1.681437
C 7.027472 0.322892 0.616336
O 7.646913 0.767341 -0.551062
C 5.629448 0.245046 0.684321
C 1.308242 -0.386710 -1.767570
O 2.705446 -0.280663 -1.870830
C 0.658890 0.073666 -3.095143
O 0.722243 -0.960375 -4.047631
C -0.792711 0.583645 -2.891982
O -1.624454 0.196850 -3.956815
H -2.998064 3.455649 1.154634
H -1.671136 2.242424 1.121791
H -2.393618 2.846811 -0.427479
H -3.002942 0.682284 2.693635
H -4.401543 1.794814 2.731318
H -4.397906 -1.246370 3.524270
H -6.544999 0.853102 -0.571955
H -6.111617 -1.605680 -1.477523
H -5.192768 -0.399411 -2.459788
H -4.491136 -2.533107 -2.795041
H -4.872472 -2.247559 0.896523
H -2.577022 -1.934693 -0.006308
H -2.266327 -0.926915 1.480475
H -1.308825 -1.053762 -1.588273
H 1.175870 1.513995 -0.726519
H 0.893164 0.569895 1.584394
H 1.047772 -1.094472 0.904818
H 5.312163 -0.921938 3.871768
H 7.531352 -1.189563 4.857250
H 9.695001 0.332247 0.857159
H 7.110268 1.040635 -1.366198
H 5.044980 0.533321 -0.180520
H 1.032226 -1.447992 -1.559616
H 3.011554 -1.044058 -2.426811
H 1.250575 0.926820 -3.495532
H 0.160437 -1.708979 -3.715379
H -0.780296 1.697577 -2.824271
H -1.359876 0.750697 -4.737815
