48

C 4.544865 -0.844253 1.152289
C 3.476239 -0.520955 0.148288
C 2.257834 -1.109805 0.131033
C 1.951806 -2.300920 1.032808
N 0.496650 -2.566679 1.151195
C -0.105453 -1.738784 2.231462
C -0.311590 -0.265871 1.788184
C -0.852968 -0.137117 0.321923
C -1.323073 -1.494814 -0.095804
N -2.590374 -1.634358 -0.332413
C -3.141338 -0.347421 -0.102715
C -4.484369 0.008469 -0.208336
C -4.846388 1.331923 0.094900
C -3.869221 2.261558 0.506141
C -2.521839 1.876965 0.609469
C -2.181704 0.563601 0.279240
C -0.278745 -2.557564 -0.143498
C 0.600651 -2.163016 -1.348962
C 1.300434 -0.816559 -1.019150
C 0.219537 0.335232 -0.758626
C -0.457896 0.575567 -2.112468
O 0.180258 1.011565 -3.059583
C 0.824728 1.678015 -0.347551
O 1.837449 1.739029 0.399019
O 0.202569 2.866686 -0.751866
C 0.673797 4.152126 -0.366896
H 4.805530 -1.922363 1.102000
H 5.456145 -0.250334 0.930731
H 4.197605 -0.585591 2.174539
H 3.717439 0.227241 -0.602334
H 2.442280 -3.200794 0.604062
H 2.403289 -2.164618 2.038934
H -1.091643 -2.174679 2.505389
H 0.505330 -1.775557 3.160123
H -1.013486 0.207154 2.509928
H 0.646288 0.268806 1.919687
H -5.229451 -0.715942 -0.510181
H -5.882341 1.636353 0.022259
H -4.159524 3.274702 0.751877
H -1.773634 2.578353 0.951520
H -0.741520 -3.553048 -0.313071
H 1.351448 -2.958336 -1.553427
H -0.013667 -2.076909 -2.272999
H 1.907853 -0.549010 -1.914081
H -1.506868 0.351277 -2.267747
H 1.710756 4.302700 -0.734806
H 0.648805 4.249678 0.739132
H 0.017505 4.928297 -0.810893
