49

C -0.459651 -1.003766 -2.147712
C -0.190024 0.061852 -1.368192
C -1.333533 0.970823 -0.961699
C -2.288313 0.275669 0.024205
C -3.473260 1.181100 0.434270
C -4.810608 0.895109 -0.294623
C -5.397867 -0.472799 0.092407
C -4.693585 1.051469 -1.822135
O -5.964846 1.059093 -2.416280
C 1.243094 0.429494 -0.971081
C 2.235569 0.505141 -2.154070
O 3.455609 -0.106144 -1.765870
C 3.381989 -0.190516 -0.368069
O 4.267575 -1.148663 0.163045
C 4.177432 -1.235701 1.595508
C 5.543539 -0.890195 2.203469
O 5.947208 0.397625 1.817872
C 3.015977 -0.438364 2.311876
O 2.697438 -1.080100 3.520957
C 1.780988 -0.337173 1.439268
O 0.688015 -0.084205 1.921639
C 1.945836 -0.546974 -0.039329
O 1.654876 -1.881090 -0.399800
H 0.322355 -1.664778 -2.504289
H -1.476594 -1.222892 -2.459064
H -1.880267 1.285363 -1.874660
H -0.944285 1.895952 -0.485579
H -1.713615 0.018863 0.938780
H -2.647631 -0.682158 -0.401684
H -3.644622 1.060389 1.526824
H -3.207548 2.252266 0.294260
H -5.530625 1.666003 0.061268
H -5.392275 -0.599546 1.195831
H -4.828927 -1.306045 -0.369045
H -6.452383 -0.543540 -0.248597
H -4.206627 2.022792 -2.052555
H -4.060820 0.243508 -2.257154
H -6.190192 0.116189 -2.629661
H 1.239754 1.429860 -0.479557
H 1.857132 -0.008604 -3.061300
H 2.425218 1.566167 -2.427327
H 3.664047 0.816525 0.035542
H 4.002907 -2.310887 1.822499
H 5.513571 -0.992307 3.313759
H 6.296231 -1.616578 1.829315
H 5.702656 1.013805 2.556354
H 3.354524 0.603450 2.516987
H 2.269965 -0.401673 4.106880
H 2.104593 -2.495344 0.236516
