48

C -5.650063 -0.816071 0.020134
C -4.854650 0.225481 0.749278
C -3.509353 0.279140 0.726822
C -2.753664 1.359766 1.466673
N -1.302542 1.220851 1.187838
C -0.819674 -0.108827 1.675920
C -1.642967 -1.267762 1.027669
C -2.610320 -0.685591 -0.021909
C -1.769657 0.131382 -1.041275
C -2.635144 0.608003 -2.224638
O -1.827226 1.137258 -3.242132
C -1.072836 1.329483 -0.288485
C 0.448220 1.402533 -0.590307
C 1.183921 0.394827 0.237174
C 0.632693 -0.248356 1.325691
N 1.523779 -1.080295 1.910121
C 2.659566 -0.930014 1.199359
C 3.878691 -1.567104 1.413256
C 4.944897 -1.260772 0.547549
C 4.774843 -0.327290 -0.514152
O 5.815434 0.001840 -1.394952
C 7.127596 -0.546589 -1.328367
C 3.524897 0.295399 -0.700794
C 2.491138 -0.031091 0.172835
H -5.444818 -0.758718 -1.069613
H -6.733636 -0.640924 0.185380
H -5.393447 -1.827110 0.400616
H -5.401402 0.973465 1.317054
H -3.107494 2.362387 1.140418
H -2.942036 1.272301 2.559117
H -0.914387 -0.153900 2.783515
H -0.987358 -2.029657 0.548815
H -2.225956 -1.796389 1.814309
H -3.157988 -1.511243 -0.523688
H -1.000976 -0.556947 -1.462009
H -3.393060 1.353852 -1.890033
H -3.188614 -0.258438 -2.645251
H -1.695323 2.099102 -3.036897
H -1.504335 2.294666 -0.638907
H 0.645362 1.231744 -1.670318
H 0.825929 2.412780 -0.323719
H 1.362098 -1.709922 2.727497
H 4.004337 -2.275502 2.221903
H 5.894970 -1.751080 0.708833
H 7.088149 -1.648374 -1.461558
H 7.743705 -0.112328 -2.142113
H 7.597409 -0.295477 -0.353971
H 3.371289 1.006407 -1.502688
