60

C 4.121904 0.397019 -3.441688
O 3.229178 -0.055705 -2.431613
C 2.381722 0.807356 -1.731388
O 2.356699 2.036830 -2.010648
N 1.514551 0.283393 -0.715253
C 1.732736 -0.872014 0.113617
C 2.965922 -1.421410 0.499530
O 4.153531 -0.947205 -0.074777
C 5.453226 -1.429965 0.246922
C 2.957721 -2.424689 1.497168
C 1.757020 -2.803515 2.126052
C 0.544813 -2.199110 1.769437
C 0.558133 -1.234878 0.761091
C -0.565888 -0.462764 0.110532
C -1.113722 -1.434364 -0.980191
C -2.092994 -2.300818 -0.153642
N -2.564093 -1.449442 0.964891
C -4.041983 -1.368125 1.112562
C -4.533038 0.037996 1.521528
C -4.051898 1.159951 0.567770
C -2.728172 0.808181 -0.166059
C -1.914961 2.100531 -0.503494
C -0.540371 1.786684 -1.167479
C 0.249290 0.846556 -0.232811
C 0.622904 1.686071 1.006927
O 0.447828 1.245645 2.177062
O 1.249498 2.924280 0.825390
C 1.660990 3.744075 1.912047
C -3.070058 0.141501 -1.549159
C -1.943666 -0.732911 -2.016519
O -1.757983 -0.930711 -3.207593
C -1.888538 -0.148272 0.796905
H 3.551642 0.870240 -4.268987
H 4.840391 1.127716 -3.013514
H 4.686801 -0.469123 -3.842992
H 5.528096 -2.511907 0.008444
H 5.668717 -1.258607 1.322661
H 6.202935 -0.880041 -0.357975
H 3.876576 -2.895955 1.817756
H 1.771579 -3.558472 2.901355
H -0.372604 -2.475865 2.270392
H -0.329536 -2.055567 -1.472105
H -2.917208 -2.716920 -0.776430
H -1.555197 -3.176962 0.264216
H -4.345422 -2.082132 1.907006
H -4.585554 -1.687047 0.200365
H -5.643419 0.042618 1.569314
H -4.160611 0.250984 2.547896
H -4.853523 1.391779 -0.168165
H -3.919623 2.080994 1.177003
H -1.750434 2.688474 0.425643
H -2.499742 2.760637 -1.180911
H -0.004203 2.747714 -1.316422
H -0.644323 1.369092 -2.185797
H 2.408730 3.205553 2.531917
H 0.783373 4.017181 2.534984
H 2.123178 4.670842 1.514822
H -3.284479 0.912202 -2.322441
H -3.986786 -0.475862 -1.506978
H -1.739655 0.318265 1.791827
