96

C 0.048175 -1.242580 -0.359018
C -1.154228 -0.867780 -0.809523
C -1.379915 0.459192 -1.505940
C -1.147378 0.256323 -3.019471
O 0.162095 -0.210294 -3.304397
C 1.118341 0.840532 -3.383700
O 1.723736 0.974020 -2.101069
C 3.037158 1.499022 -2.152191
C 3.490078 1.844231 -0.727128
O 3.187746 0.767239 0.139968
C 4.033937 0.762201 1.271867
O 5.213786 0.053461 0.957732
C 6.209489 0.207373 1.960229
C 7.215513 -0.942567 1.780587
O 8.295688 -0.829040 2.671222
C 5.641128 0.242440 3.423114
O 5.463474 1.573674 3.849696
C 4.290678 -0.494651 3.483212
O 3.718244 -0.376069 4.760737
C 3.300584 0.045674 2.428028
O 2.541407 -1.029233 1.924870
C 4.006873 0.474571 -2.795425
O 5.140238 1.164031 -3.260756
C 3.333465 -0.288385 -3.967216
O 2.956027 -1.588663 -3.588324
C 2.128436 0.494714 -4.519201
O 1.495798 -0.233605 -5.542709
O -2.089283 -0.713556 -3.482653
C -3.425742 -0.730192 -3.053057
C -3.852487 0.039609 -2.030737
C -5.316585 0.194586 -1.886151
O -5.815896 1.328766 -1.652379
O -6.150568 -0.904682 -2.122766
C -7.564740 -0.779864 -2.233866
C -2.846668 0.973387 -1.348614
C -3.212292 1.562833 0.054077
C -3.191332 0.726655 1.372591
C -4.151103 -0.455962 1.383180
C -5.530291 -0.221610 1.225474
C -6.461009 -1.259427 1.354263
O -7.825682 -0.998396 1.253775
C -6.017617 -2.563375 1.611112
O -6.915578 -3.629085 1.695218
C -4.658171 -2.801239 1.816946
C -3.731991 -1.744120 1.778988
C -2.316417 -2.014456 2.192898
C -1.638764 -0.757898 2.728570
N -1.821964 0.382762 1.824200
C -0.818546 1.414972 1.933362
C -1.108759 2.732013 2.588611
O 0.345422 1.196517 1.512865
H 0.193047 -2.235436 0.046911
H 0.893728 -0.572714 -0.380896
H -1.950630 -1.599802 -0.809549
H -0.686025 1.233092 -1.116687
H -1.375684 1.196197 -3.569582
H 0.660273 1.819727 -3.657795
H 3.046389 2.446234 -2.745465
H 4.574607 2.095287 -0.745610
H 2.931716 2.744098 -0.386930
H 4.267133 1.807672 1.596805
H 6.761565 1.158668 1.758863
H 6.700014 -1.910938 1.977542
H 7.579909 -0.963482 0.730803
H 8.946923 -0.201779 2.254775
H 6.340600 -0.259326 4.135451
H 6.369586 1.933724 4.032419
H 4.488080 -1.577330 3.274260
H 4.279795 -0.919164 5.377224
H 2.621015 0.798728 2.899162
H 1.811121 -1.188293 2.574608
H 4.321319 -0.265842 -2.017856
H 5.881628 0.502697 -3.316693
H 4.071799 -0.395724 -4.791258
H 2.395246 -1.522558 -2.770399
H 2.506765 1.457949 -4.940973
H 2.097950 -0.201004 -6.330782
H -4.119267 -1.373124 -3.585596
H -7.825124 -0.157023 -3.124495
H -8.013595 -1.783866 -2.361209
H -7.979449 -0.314434 -1.318465
H -2.888170 1.887131 -1.988304
H -2.547956 2.434019 0.202916
H -4.204721 2.047863 -0.014044
H -3.606432 1.407788 2.147491
H -5.886171 0.780213 1.038041
H -8.177858 -0.055992 1.110175
H -7.912269 -3.505756 1.563416
H -4.327770 -3.802619 2.064361
H -2.298943 -2.777408 3.001390
H -1.757919 -2.438259 1.343331
H -0.558741 -0.976132 2.866096
H -2.065110 -0.502651 3.723959
H -0.274578 3.002424 3.269922
H -2.036312 2.687723 3.190305
H -1.201990 3.525354 1.819804
