65

C -1.957954 -2.181046 2.455568
C -0.759452 -1.955534 1.534937
C -0.498390 -3.200031 0.610201
C 0.702762 -2.741384 -0.293842
O 1.032122 -3.693575 -1.267245
O 1.787926 -2.535149 0.586363
C 1.386139 -1.397486 1.332792
O 0.421953 -1.790040 2.294887
C 0.648436 -0.503541 0.352488
C 1.181657 0.929701 0.138194
O 2.450940 0.901951 -0.513647
C 3.680511 0.954776 0.155101
O 3.718998 1.160927 1.399155
C 4.936991 0.788651 -0.607820
C 4.901900 0.609063 -2.000759
C 6.089678 0.462975 -2.730883
O 6.049253 0.289074 -4.113832
C 7.325619 0.491638 -2.072985
O 8.497749 0.349041 -2.817094
C 7.371609 0.662126 -0.679215
O 8.600181 0.684097 -0.019956
C 6.180931 0.810325 0.046307
C 0.426779 -1.328350 -0.906884
C -1.057167 -0.938434 -0.861976
C -0.843689 -0.659669 0.644866
O -1.407212 0.502131 1.240806
C -2.769097 0.677185 0.890041
O -2.842182 1.438646 -0.302541
C -4.161656 1.474623 -0.838662
C -4.372637 0.317816 -1.833753
O -5.602188 0.455648 -2.494735
C -5.279637 1.589624 0.244679
O -5.803224 0.323905 0.565178
C -4.696927 2.247639 1.512158
O -4.291944 3.562450 1.224837
C -3.480784 1.439385 2.034535
O -3.903982 0.515811 3.005279
H -2.888411 -2.311477 1.865042
H -2.068619 -1.323852 3.149466
H -1.799747 -3.096498 3.063927
H -0.195730 -4.078218 1.222447
H -1.393310 -3.497565 0.025574
H 0.249101 -3.762539 -1.872602
H 2.254632 -0.915753 1.823120
H 0.479172 1.492729 -0.511865
H 1.236120 1.471356 1.106869
H 3.955678 0.585659 -2.526791
H 5.172088 0.261977 -4.619306
H 9.414218 0.362769 -2.386603
H 8.662282 0.803501 0.984545
H 6.231542 0.943097 1.120486
H 1.019921 -1.030051 -1.798658
H -1.790514 -1.725233 -1.126349
H -1.222808 -0.017876 -1.461497
H -3.275411 -0.307791 0.753247
H -4.213806 2.410597 -1.438005
H -4.358607 -0.658553 -1.305574
H -3.538414 0.301456 -2.571892
H -5.462867 1.119730 -3.220319
H -6.100789 2.225642 -0.162335
H -6.645921 0.481121 1.066438
H -5.481645 2.282693 2.304502
H -5.118327 4.096154 1.095909
H -2.751432 2.148824 2.494490
H -4.032409 1.023131 3.849149
