65

C 5.395826 0.964214 -0.667337
O 5.203866 0.121067 0.461920
C 5.683854 -1.190646 0.510159
O 6.330857 -1.675379 -0.458225
C 5.417749 -2.029342 1.724565
C 4.492255 -3.209092 1.411102
C 3.131226 -2.740101 0.996349
O 2.822600 -2.723988 -0.225640
O 2.227387 -2.292795 1.967732
C 0.974677 -1.693779 1.642433
C 1.189304 -0.323377 1.058230
C 1.752765 0.677234 1.725302
C 1.819797 1.918867 0.906750
C 1.528732 1.418766 -0.514951
C 0.836983 2.451725 -1.387368
C 1.567551 3.682554 -1.771343
O 2.739020 3.873780 -1.345562
O 0.970027 4.627351 -2.610716
C 1.622223 5.828491 -2.999575
C -0.401339 2.225806 -1.857042
O -1.107100 1.072644 -1.505598
C -0.765784 0.304501 -0.357308
O -1.396736 -0.961487 -0.438095
C -2.642055 -0.965315 0.232341
O -3.546478 -0.097986 -0.424453
C -4.776764 0.076292 0.278973
C -5.893760 0.273051 -0.763867
O -5.556406 1.300260 -1.657367
C -5.111808 -1.062049 1.304474
O -6.459794 -1.058003 1.715101
C -4.634063 -2.455681 0.822892
O -5.541790 -2.994767 -0.111206
C -3.204135 -2.395324 0.208201
O -3.213571 -2.862130 -1.121740
C 0.758572 0.095276 -0.314829
H 4.962708 1.965406 -0.454572
H 6.484363 1.077063 -0.875284
H 4.890323 0.529528 -1.556031
H 6.386355 -2.416641 2.106675
H 4.964567 -1.402660 2.523916
H 4.937707 -3.836089 0.609718
H 4.389461 -3.839823 2.319653
H 0.365947 -1.603405 2.566037
H 0.418798 -2.342468 0.931973
H 2.090553 0.608535 2.754741
H 2.825340 2.384176 0.979232
H 1.039610 2.626821 1.257855
H 2.496784 1.162739 -0.999088
H 2.566532 5.589407 -3.527331
H 1.841454 6.449573 -2.105524
H 0.959394 6.399423 -3.679896
H -0.872185 2.922608 -2.537464
H -1.064807 0.889986 0.546426
H -2.491085 -0.667195 1.298528
H -4.705680 1.028338 0.853827
H -6.084354 -0.672419 -1.319879
H -6.833808 0.570370 -0.256416
H -4.945974 0.900011 -2.329551
H -4.528907 -0.836211 2.226387
H -7.022757 -1.402259 0.975319
H -4.579272 -3.117166 1.722302
H -6.137769 -3.617371 0.382267
H -2.515591 -3.027630 0.820185
H -3.120388 -3.851822 -1.075638
H 1.068995 -0.651465 -1.081437
