48

C -4.163879 -1.744328 0.785953
C -3.444175 -0.486862 1.193554
C -2.339245 0.019412 0.583692
C -2.057249 1.494455 0.866976
N -1.020260 2.117623 -0.005651
C -1.292113 3.584717 -0.026764
C 0.401105 1.949442 0.484402
C 0.731349 0.729014 1.389923
C 1.431747 -0.366923 0.650840
C 0.872043 -1.502629 0.060414
N 1.841145 -2.252414 -0.520819
C 2.995058 -1.595297 -0.322471
C 4.264930 -1.969492 -0.759861
C 5.342641 -1.118478 -0.455131
C 5.128420 0.075310 0.268391
C 3.835107 0.427578 0.695066
C 2.786385 -0.439079 0.381874
C -0.591359 -1.880474 -0.003070
C -0.974458 -2.578298 1.276152
O -0.975223 -1.966069 2.376260
O -1.280357 -3.934114 1.255662
C -1.582424 -0.758112 -0.508443
C -0.945538 0.155128 -1.599214
C -1.201131 1.650590 -1.408450
H -4.517966 -1.657641 -0.262334
H -5.054321 -1.883939 1.434020
H -3.527497 -2.639442 0.889965
H -3.939621 0.110100 1.956180
H -3.034232 2.014421 0.716275
H -1.823646 1.655172 1.942828
H -0.523272 4.128687 -0.622241
H -1.289085 4.007893 1.003793
H -2.284318 3.819942 -0.476058
H 1.113868 1.983852 -0.371289
H 0.703471 2.830681 1.098786
H -0.116060 0.317989 1.953852
H 1.423811 1.070014 2.190480
H 1.716338 -3.150105 -1.040351
H 4.417863 -2.883860 -1.318397
H 6.341589 -1.378902 -0.779835
H 5.964198 0.724585 0.494360
H 3.665199 1.344569 1.243802
H -0.645781 -2.665634 -0.791125
H -2.371309 -1.307513 -1.067335
H -1.354836 -0.130447 -2.594448
H 0.144588 0.014615 -1.717725
H -2.243120 1.855625 -1.750982
H -0.528379 2.208641 -2.100735
