48

C -4.187600 1.019090 -2.044113
C -3.655749 1.028425 -0.639065
C -3.633808 -0.028779 0.173787
C -4.182629 -1.388217 -0.169898
O -3.389546 -1.980899 -1.159599
C -3.014494 0.299886 1.497156
C -1.699369 -0.477573 1.743884
C -0.636635 -0.292695 0.651652
O 0.495857 -1.072363 0.978956
C 1.571129 -0.772652 0.107931
O 2.175844 0.449783 0.534694
C 3.593069 0.493350 0.418755
C 4.058339 1.952943 0.511960
O 3.423886 2.736115 -0.462254
C 4.112300 -0.193433 -0.867004
O 3.555491 0.436777 -1.994697
C 3.724936 -1.696946 -0.854993
O 4.826977 -2.499335 -0.508461
C 2.533903 -1.983941 0.088214
O 1.859838 -3.132985 -0.357598
C -2.822139 1.827627 1.450787
C -3.054001 2.235468 -0.006789
H -4.074222 2.021662 -2.504934
H -3.626990 0.283684 -2.657488
H -5.264417 0.752403 -2.038128
H -4.183077 -2.032083 0.737648
H -5.232225 -1.285459 -0.525088
H -3.840089 -2.831137 -1.400604
H -3.733585 0.044421 2.307001
H -1.934483 -1.561374 1.831825
H -1.271780 -0.157166 2.719742
H -1.049945 -0.630535 -0.324041
H -0.370034 0.785596 0.581391
H 1.210328 -0.637055 -0.941232
H 4.035416 -0.028266 1.297589
H 3.805008 2.346625 1.522147
H 5.162867 2.007645 0.385337
H 3.771705 3.658618 -0.343185
H 5.223865 -0.093798 -0.900074
H 4.122845 0.192364 -2.771112
H 3.426846 -1.986067 -1.888116
H 5.141355 -2.210000 0.387995
H 2.912822 -2.149976 1.125045
H 1.358333 -3.496131 0.418640
H -3.588155 2.315764 2.093391
H -1.821392 2.153387 1.807915
H -3.745571 3.102193 -0.074870
H -2.091026 2.475038 -0.505358
