122

C -0.775928 3.154124 -1.545890
C -1.166993 1.921365 -1.895177
C -1.860981 0.918866 -0.961466
C -1.418643 -0.484444 -1.424490
C -1.531433 1.086878 0.567007
C -0.039811 1.042137 0.968901
C 0.525318 -0.360357 0.922544
C 1.718760 -0.695951 0.376358
C 2.115383 -2.149577 0.365049
C 2.676515 0.334229 -0.188541
O 3.196660 1.136019 0.856422
C 4.370087 0.546473 1.388809
O 5.448432 0.791124 0.500900
C 6.568538 0.013479 0.884296
C 7.652522 0.151272 -0.200394
O 8.485944 -1.007475 -0.242150
C 8.078298 -2.212676 -0.839046
O 6.914405 -2.321266 -1.304718
C 8.973713 -3.380341 -0.906573
C 10.303670 -3.369152 -0.741521
C 11.156645 -2.167989 -0.620025
C 11.023023 -1.077356 -1.493074
C 11.878594 0.035588 -1.384643
O 11.742250 1.164506 -2.211897
C 10.764755 1.297338 -3.236695
C 12.906222 0.025052 -0.430655
O 13.751395 1.133032 -0.336912
C 13.089229 -1.088176 0.408649
O 14.158103 -1.081518 1.321976
C 14.489704 -2.164929 2.185412
C 12.203955 -2.176794 0.308833
C 7.085558 0.430359 2.298160
O 7.132585 -0.707085 3.127585
C 6.172540 1.508278 2.939930
O 6.433269 2.748184 2.326212
C 4.670770 1.151324 2.785379
O 4.297801 0.224161 3.777410
O -3.272556 0.924722 -1.150625
C -3.923170 2.179715 -0.973827
O -4.902057 2.094804 0.051256
C -5.880078 1.101667 -0.228957
C -6.795141 0.964344 1.006476
O -7.237261 -0.380361 1.187462
C -8.438294 -0.882802 0.676409
O -9.107996 -0.221825 -0.165040
C -8.876466 -2.223576 1.106413
C -10.133505 -2.694727 1.052113
C -11.331770 -1.912910 0.672920
C -11.570440 -0.634334 1.200752
C -12.717208 0.091562 0.828648
O -12.952303 1.394839 1.295461
C -12.071497 2.118601 2.150679
C -13.655228 -0.499419 -0.038102
O -14.803495 0.192462 -0.428818
C -13.453183 -1.799878 -0.524510
O -14.429540 -2.357995 -1.365800
C -14.373293 -3.676276 -1.904621
C -12.290412 -2.502018 -0.161498
C -6.673830 1.457354 -1.511547
O -7.439439 2.619160 -1.298499
C -5.714729 1.678462 -2.698362
O -5.200792 0.438246 -3.121279
C -4.561952 2.628767 -2.300731
O -5.045101 3.941469 -2.156409
H -0.326367 3.805160 -2.290211
H -0.897693 3.536925 -0.540683
H -1.034775 1.638347 -2.936319
H -0.317106 -0.547403 -1.554945
H -1.875298 -0.722512 -2.411337
H -1.755515 -1.264383 -0.709103
H -2.085265 0.311308 1.144400
H -1.932729 2.055278 0.932071
H 0.048356 1.388441 2.019446
H 0.534592 1.757427 0.358262
H -0.078672 -1.146876 1.374102
H 2.143525 -2.539069 1.406868
H 3.118860 -2.296658 -0.084943
H 1.375054 -2.738239 -0.218128
H 2.147934 0.979466 -0.918067
H 3.475318 -0.153178 -0.795654
H 4.209929 -0.552721 1.523485
H 6.275209 -1.061935 0.902895
H 7.178824 0.293822 -1.197001
H 8.281184 1.052490 -0.024392
H 8.499697 -4.341445 -1.066577
H 10.805869 -4.327821 -0.703910
H 10.250559 -1.099520 -2.250361
H 10.903927 0.504062 -4.000642
H 10.884036 2.285066 -3.726946
H 9.742870 1.237837 -2.805329
H 14.515338 1.176479 0.331042
H 15.385709 -1.890816 2.780073
H 14.725654 -3.068099 1.584954
H 13.649436 -2.373240 2.879977
H 12.325770 -3.041008 0.949438
H 8.115715 0.861086 2.224929
H 7.736849 -0.484306 3.888122
H 6.426984 1.587880 4.023870
H 6.088306 3.446672 2.941583
H 4.070675 2.086633 2.915954
H 4.166641 0.739257 4.615535
H -3.229578 2.987840 -0.667416
H -5.388055 0.111741 -0.366743
H -7.659861 1.662732 0.979643
H -6.213920 1.232855 1.911538
H -8.108814 -2.890096 1.481840
H -10.288173 -3.741360 1.297157
H -10.857591 -0.209813 1.895031
H -12.495809 3.125623 2.339526
H -11.078913 2.234522 1.671497
H -11.967558 1.591780 3.123133
H -15.003062 1.133254 -0.111676
H -15.268942 -3.845753 -2.534348
H -14.367843 -4.425043 -1.080791
H -13.468791 -3.797011 -2.536384
H -12.113437 -3.506480 -0.531319
H -7.346676 0.603467 -1.762408
H -8.162753 2.613698 -1.977880
H -6.291412 2.131570 -3.539050
H -4.850883 0.573882 -4.041977
H -3.775721 2.611968 -3.093905
H -5.181728 4.297459 -3.072984
