50

C -1.226518 2.901204 1.698781
C -1.218592 1.388732 1.444599
C -1.227146 0.973675 -0.069432
C 0.015082 1.604774 -0.791865
C 1.288707 1.083254 -0.167475
C 2.342958 2.053324 0.222204
O 3.214369 1.761357 1.084118
O 2.345941 3.324932 -0.360965
C 3.299447 4.324496 -0.021970
C 1.346591 -0.247294 0.063934
N 2.316006 -0.913133 0.881609
C 1.750366 -2.176327 1.180716
C 2.299441 -3.144411 2.021119
C 1.588463 -4.339658 2.215392
C 0.353418 -4.545168 1.569860
C -0.179216 -3.556510 0.726556
C 0.536733 -2.367433 0.555443
C 0.220618 -1.191895 -0.332162
C 0.300570 -1.593182 -1.803644
C -1.139982 -1.791900 -2.253081
N -2.037958 -1.238467 -1.223536
C -3.163178 -0.439161 -1.788928
C -2.673243 0.979074 -2.093346
O -2.850385 2.312269 -1.611495
C -2.594581 1.393613 -0.630054
C -1.204427 -0.621686 -0.143192
H -0.244077 3.349321 1.444030
H -2.027424 3.401396 1.115806
H -1.411124 3.090503 2.777250
H -0.337658 0.954358 1.964339
H -2.110422 0.960307 1.954642
H 0.075290 1.353071 -1.863526
H -0.045351 2.711467 -0.750130
H 3.094808 5.239208 -0.615117
H 4.324737 3.966433 -0.254352
H 3.223090 4.571436 1.058171
H 3.236041 -0.572196 1.231659
H 3.249025 -2.978847 2.513120
H 1.992410 -5.107210 2.862610
H -0.185450 -5.471531 1.720243
H -1.121336 -3.715550 0.218796
H 0.763567 -0.787450 -2.413500
H 0.900104 -2.517004 -1.966612
H -1.284890 -1.321191 -3.251364
H -1.350380 -2.877930 -2.355780
H -4.061088 -0.509234 -1.130143
H -3.505509 -0.891833 -2.745277
H -1.767706 0.965005 -2.721701
H -3.493711 1.267784 0.020172
H -1.616428 -1.014792 0.813476
