52

C -1.704574 2.930419 2.793850
C -1.868862 1.805239 1.806197
C -0.859382 0.920169 1.665396
C -0.901013 -0.238611 0.692589
O -0.342740 0.183161 -0.543611
C 1.049406 -0.072868 -0.616149
O 1.743480 0.816875 0.243544
C 3.116812 0.465621 0.388216
C 3.297009 -0.498804 1.570302
O 4.659384 -0.660115 1.854295
C 3.759628 -0.077824 -0.927319
O 5.140010 0.189488 -0.986324
C 3.019776 0.491057 -2.154470
O 3.159911 1.890747 -2.198248
C 1.511978 0.137214 -2.076973
O 1.253330 -1.035368 -2.807058
C -2.374328 -0.719243 0.480622
O -2.917455 -1.153487 1.711815
C -2.526379 -1.901684 -0.556282
C -1.562771 -3.072767 -0.290019
C -2.440198 -1.500469 -2.043654
C -3.200429 0.514551 0.041761
C -3.214667 1.614061 1.124692
O -3.619343 2.829658 0.549995
H -2.637913 3.524896 2.885189
H -1.455090 2.521812 3.796217
H -0.887217 3.604130 2.460474
H 0.056154 1.066518 2.232788
H -0.330099 -1.075632 1.157691
H 1.258231 -1.135157 -0.343089
H 3.640637 1.407343 0.662467
H 2.842094 -1.486925 1.338149
H 2.781416 -0.076909 2.462085
H 4.708327 -1.287101 2.622007
H 3.641378 -1.184106 -0.959658
H 5.268139 1.170797 -0.917453
H 3.453501 0.038693 -3.078937
H 3.971671 2.088874 -2.734434
H 0.922691 0.978719 -2.515258
H 1.238609 -0.780394 -3.766623
H -2.277621 -1.773312 2.146891
H -3.553165 -2.310354 -0.419270
H -1.627756 -3.420521 0.760361
H -0.515623 -2.785864 -0.516599
H -1.827517 -3.935955 -0.937577
H -2.579409 -2.396886 -2.685260
H -1.459513 -1.056800 -2.297818
H -3.249669 -0.793063 -2.316280
H -4.248674 0.211183 -0.174440
H -2.775687 0.951224 -0.888670
H -3.940417 1.319637 1.918366
H -4.596056 2.758132 0.385514
