52

C -3.734606 4.234936 1.623502
O -3.016627 3.094265 1.169225
C -2.123063 3.142353 0.095425
O -1.900519 4.238017 -0.489594
C -1.388453 1.930206 -0.331393
C -1.881022 0.685239 -0.218168
N -3.098428 0.329373 0.443873
C -2.996422 -1.061911 0.684887
C -3.918398 -1.847142 1.376162
C -3.642476 -3.214870 1.534709
C -2.461640 -3.768573 1.001994
C -1.548731 -2.958473 0.306950
C -1.834962 -1.596646 0.168160
C -1.062493 -0.537167 -0.575328
C -1.024504 -0.837925 -2.083748
C 0.424568 -1.235271 -2.372589
N 1.098292 -1.350622 -1.075185
C 2.579064 -1.335967 -1.127134
C 3.236490 -0.055119 -0.563421
C 3.574052 -0.157842 0.948270
C 4.858358 -0.954744 1.222570
O 5.977174 -0.305063 0.681058
C 2.355970 1.155551 -0.874828
C 0.967013 1.048693 -0.220332
C 0.005509 2.066451 -0.887755
C 0.414019 -0.429369 -0.159313
H -3.025893 5.022418 1.956701
H -4.377170 3.943613 2.479460
H -4.377733 4.628574 0.808049
H -3.912406 0.932601 0.689928
H -4.822754 -1.413722 1.782994
H -4.341148 -3.846683 2.067464
H -2.259387 -4.824703 1.123835
H -0.648060 -3.383027 -0.116404
H -1.715997 -1.663270 -2.365985
H -1.301412 0.051805 -2.690017
H 0.907685 -0.458058 -3.005367
H 0.462649 -2.211213 -2.902549
H 2.928452 -1.477463 -2.175055
H 2.946981 -2.227246 -0.579417
H 4.190561 0.104873 -1.114028
H 3.706381 0.859684 1.377245
H 2.740197 -0.636823 1.501113
H 4.986985 -1.081499 2.321521
H 4.786346 -1.970276 0.782881
H 6.171420 0.468237 1.272696
H 2.256664 1.237741 -1.979715
H 2.859019 2.087081 -0.532797
H 1.082928 1.382112 0.836416
H 0.395916 3.092578 -0.709904
H -0.028494 1.912514 -1.987223
H 0.530109 -0.808230 0.880160
