81

C 10.329251 0.793797 -2.164920
O 9.557972 -0.307224 -2.634137
C 8.173649 -0.442203 -2.445646
C 7.538241 -1.574350 -2.967196
C 6.161879 -1.757823 -2.803596
C 5.393275 -0.802129 -2.115100
C 3.937977 -0.988834 -1.934333
O 3.378874 -2.046297 -2.339641
O 3.183761 0.009815 -1.306782
C 1.803224 -0.131444 -0.973649
C 1.602746 -1.049673 0.245839
O 0.204927 -1.308401 0.361869
C -0.263168 -1.650856 1.662410
O -0.711920 -0.485591 2.342685
C -2.102675 -0.181824 2.219778
C -2.420123 1.208031 2.787565
C -3.461201 1.335013 1.673759
C -4.726560 0.749325 2.262969
O -5.803263 1.317088 2.166989
C -4.567746 -0.549404 3.035701
C -3.210327 -1.246527 2.617831
C -2.779666 -2.217248 3.728124
O -3.501103 -1.952168 1.431707
C -3.370462 -1.030392 0.356097
O -4.634204 -0.705130 -0.191893
C -5.180671 -1.825999 -0.850979
C -2.661497 0.247423 0.871317
C -1.687383 0.904837 -0.148144
O -2.368150 1.882812 -0.933097
C -3.185842 1.571623 -2.025745
O -3.164387 0.413015 -2.525425
C -4.073892 2.608360 -2.593515
C -4.878289 2.331873 -3.715337
C -5.726645 3.314025 -4.234809
C -5.785264 4.576429 -3.641892
C -4.994753 4.860755 -2.525966
C -4.143327 3.883077 -2.002155
C 0.822538 -2.340518 2.518133
O 0.292413 -2.720021 3.759968
C 2.028855 -1.400971 2.728672
O 3.179716 -2.186188 2.919827
C 2.213248 -0.434064 1.531079
O 3.576416 -0.144307 1.341320
C 6.030492 0.336370 -1.594970
C 7.408656 0.514760 -1.753943
H 10.258430 0.865289 -1.059047
H 11.392967 0.640668 -2.444024
H 9.971205 1.735783 -2.632451
H 8.115344 -2.320180 -3.500477
H 5.700430 -2.646168 -3.218373
H 1.247075 -0.531786 -1.849778
H 1.389344 0.874720 -0.751008
H 2.115051 -2.014837 0.034138
H -1.067667 -2.395230 1.516492
H -1.580163 1.924140 2.646623
H -2.784342 1.219703 3.839411
H -3.556178 2.351781 1.236141
H -4.578885 -0.316212 4.121981
H -5.426269 -1.223469 2.821388
H -2.167465 -3.047686 3.329217
H -3.667273 -2.692466 4.197767
H -2.214938 -1.677460 4.518793
H -2.719388 -1.505344 -0.413039
H -6.140164 -1.525882 -1.318372
H -5.398844 -2.647176 -0.132386
H -4.515333 -2.189097 -1.665028
H -1.225930 0.161385 -0.826654
H -0.862692 1.415490 0.390825
H -4.850855 1.358459 -4.190300
H -6.341386 3.094762 -5.098723
H -6.445133 5.334862 -4.044160
H -5.045615 5.838549 -2.064673
H -3.546142 4.123262 -1.131223
H 1.147095 -3.252319 1.962509
H 0.916275 -3.389739 4.144645
H 1.838555 -0.781052 3.637692
H 3.797111 -1.664984 3.495052
H 1.664148 0.514312 1.742550
H 3.831242 0.503005 2.050094
H 5.468662 1.086882 -1.052845
H 7.866134 1.399195 -1.334072
