106

C -5.107276 -2.356082 -1.820578
C -5.461766 -1.195037 -2.752209
C -5.714128 0.170865 -2.057492
C -6.784248 0.077831 -0.948557
N -6.153270 -0.084046 0.368613
C -7.188482 -0.459489 1.350905
C -5.415240 1.136856 0.801677
C -4.345096 0.772599 1.866603
C -3.653299 -0.530001 1.574624
C -2.759958 -0.785180 0.535545
N -2.414372 -2.097210 0.524126
C -3.084379 -2.667040 1.538303
C -3.059616 -4.010904 1.908052
C -3.846175 -4.405198 3.005233
C -4.621137 -3.456109 3.711315
C -4.625958 -2.107278 3.313919
C -3.846009 -1.746664 2.209156
C -2.198405 0.254786 -0.399519
C -0.701720 0.015352 -0.634804
C 0.210410 0.696681 0.210347
C 1.572747 0.476025 0.052293
N 2.563354 1.007254 0.782352
C 3.722868 0.493253 0.301300
C 3.441866 -0.372556 -0.764538
C 2.061660 -0.375016 -0.890645
C 1.212151 -1.090439 -1.731015
C -0.189351 -0.916078 -1.597618
O -1.077955 -1.665818 -2.385077
C -0.690562 -2.635901 -3.350610
C 4.407105 -1.210011 -1.545951
C 5.510480 -0.365597 -2.197304
N 6.267575 0.511822 -1.275977
C 6.083534 1.968012 -1.503549
C 6.387944 2.746689 -0.201229
C 7.734310 2.235495 0.362862
C 7.625334 0.721162 0.734247
C 8.832324 -0.093026 0.218444
C 10.122679 0.251571 0.961439
C 6.288154 0.156468 0.166031
C 5.078000 0.845528 0.911368
C 5.026288 0.378367 2.355769
O 4.594986 1.145410 3.262139
O 5.352068 -0.946358 2.665070
C 5.290450 -1.459126 3.989878
C 5.282394 2.408164 0.819412
C -3.026330 0.435631 -1.703164
C -4.475122 1.067743 -1.648126
C -4.806258 1.958376 -0.398238
C -5.734435 3.117354 -0.741624
O -6.252366 3.225930 -1.889914
O -6.002829 4.081493 0.238995
C -6.892467 5.169173 0.020630
H -4.125113 -2.207147 -1.353987
H -5.865259 -2.497105 -1.026464
H -5.062974 -3.291783 -2.415156
H -4.702880 -1.093038 -3.556972
H -6.396896 -1.483728 -3.276171
H -6.229545 0.750615 -2.860086
H -7.428773 0.987842 -0.951201
H -7.472280 -0.773400 -1.164830
H -7.537633 -1.493501 1.150876
H -8.052559 0.238672 1.316958
H -6.789304 -0.450740 2.380422
H -6.123651 1.813643 1.333815
H -4.829988 0.710332 2.862482
H -3.593896 1.581534 1.971705
H -1.764193 -2.582990 -0.127217
H -2.461654 -4.732017 1.365218
H -3.853759 -5.440499 3.314343
H -5.223656 -3.773359 4.554689
H -5.207674 -1.379143 3.862204
H -2.241766 1.219033 0.129587
H -0.131922 1.378562 0.978751
H 2.456005 1.671167 1.579858
H 1.621855 -1.776951 -2.454948
H -0.115023 -3.449356 -2.858152
H -0.075719 -2.158086 -4.147324
H -1.606974 -3.068280 -3.806843
H 3.878061 -1.750179 -2.356854
H 4.833468 -1.999094 -0.893813
H 5.060863 0.219288 -3.024366
H 6.231716 -1.059685 -2.679070
H 6.776958 2.296897 -2.308613
H 5.043799 2.198659 -1.828855
H 6.429439 3.841316 -0.392035
H 8.016942 2.823521 1.262632
H 8.523090 2.410211 -0.404103
H 7.606191 0.624991 1.842032
H 8.640278 -1.177415 0.361883
H 8.975906 0.079057 -0.868982
H 10.026082 -0.004793 2.034703
H 10.965459 -0.328868 0.532771
H 10.352612 1.331705 0.867756
H 6.290248 -0.943391 0.314124
H 5.985009 -0.896912 4.649075
H 4.254783 -1.378393 4.383088
H 5.584726 -2.527001 3.981343
H 5.575145 2.847943 1.797802
H 4.351284 2.935447 0.517718
H -2.404678 1.105164 -2.341603
H -3.051879 -0.496617 -2.263654
H -4.401481 1.794086 -2.489808
H -3.891392 2.490349 -0.077472
H -7.893554 4.785011 -0.275249
H -6.492240 5.831091 -0.775085
H -6.992081 5.751607 0.960733
