62

C 3.998082 1.503003 -2.660013
O 3.231918 0.843799 -1.659768
C 2.203846 1.478558 -0.954807
O 1.936074 2.687379 -1.185273
N 1.482179 0.751746 0.052987
C 1.920739 -0.560747 0.465247
C 3.157728 -0.872446 1.038492
O 4.151081 0.114987 1.107241
C 5.446731 -0.089629 1.659186
C 3.340932 -2.181024 1.544069
C 2.294009 -3.123099 1.496306
C 1.053736 -2.785664 0.935628
C 0.886602 -1.492604 0.439112
C -0.218665 -0.854664 -0.365252
C -0.027673 -1.520798 -1.750041
C -1.019334 -2.750288 -1.632055
N -1.912699 -2.499399 -0.453042
C -3.349361 -2.840010 -0.651987
C -4.349220 -1.704133 -0.265560
C -3.874171 -0.851293 0.933474
C -2.471592 -0.230055 0.703843
C -1.654896 -0.142777 2.004746
C -0.351644 0.639675 1.724974
C 0.014249 0.616888 0.155132
C -1.026393 1.633607 -0.499209
O -1.056496 1.475526 -1.898042
C -0.777706 3.101998 -0.197824
O 0.089796 3.464962 0.643725
O -1.550243 4.060438 -0.861513
C -1.399468 5.456602 -0.636845
C -2.477252 1.237945 0.077056
C -1.710758 -1.082955 -0.315325
H 3.335399 1.841879 -3.484320
H 4.748372 0.795790 -3.068886
H 4.527395 2.374641 -2.220300
H 5.365163 -0.366929 2.731355
H 5.979168 -0.885925 1.097345
H 6.027659 0.851850 1.578052
H 4.280821 -2.476421 1.989635
H 2.449909 -4.118832 1.890602
H 0.256977 -3.514541 0.887692
H -0.338393 -0.848098 -2.578813
H 1.009136 -1.857700 -1.984013
H -0.448479 -3.687911 -1.465801
H -1.583646 -2.848437 -2.585392
H -3.565727 -3.153459 -1.695951
H -3.571605 -3.720533 -0.012775
H -4.501669 -1.036983 -1.141884
H -5.337109 -2.153534 -0.026067
H -4.615413 -0.048753 1.136961
H -3.854275 -1.514329 1.826453
H -1.413006 -1.166265 2.369375
H -2.240541 0.372773 2.797652
H 0.447085 0.222528 2.375491
H -0.477983 1.673100 2.101756
H -0.160211 1.701215 -2.254385
H -2.116116 6.008709 -1.278896
H -0.366738 5.773680 -0.894523
H -1.611312 5.695237 0.427007
H -2.807083 1.958311 0.859826
H -3.237034 1.307152 -0.733235
H -2.160874 -0.663742 -1.266615
