50

C 3.046193 1.286258 4.485210
C 2.847246 0.569333 3.148515
C 1.922502 1.357079 2.178788
O 2.373637 2.687166 2.051560
C 0.433399 1.348394 2.628372
C -0.312393 0.829025 1.378372
C 0.530013 1.376454 0.250860
C -0.011597 0.947501 -1.116841
C 0.018809 1.889240 -2.259310
O 0.331211 3.097631 -2.075025
O -0.253315 1.427370 -3.551652
C -0.232899 2.277719 -4.691538
C -0.687905 -0.215325 -1.189809
N -1.895646 -0.378549 -1.940755
C -2.660064 -1.314356 -1.193397
C -3.981012 -1.683445 -1.445853
C -4.597339 -2.595977 -0.573640
C -3.890832 -3.115324 0.529610
C -2.564241 -2.722509 0.771981
C -1.974151 -1.804114 -0.098822
C -0.581675 -1.260021 -0.100297
C 0.454019 -2.290676 -0.504564
C 1.757163 -1.632103 -0.091499
N 1.449327 -0.726041 1.029952
C 1.802526 0.693896 0.778593
C -0.012624 -0.676615 1.204884
H 2.071855 1.451950 4.990611
H 3.551349 2.263301 4.333565
H 3.684054 0.663287 5.146992
H 2.429733 -0.439696 3.356323
H 3.841695 0.428174 2.671976
H 3.283244 2.655322 1.654308
H 0.084174 2.373648 2.881972
H 0.243591 0.685132 3.500881
H -1.391125 1.097079 1.343782
H 0.586172 2.488949 0.295416
H -0.983673 3.087718 -4.574646
H -0.482978 1.683162 -5.593966
H 0.778584 2.718170 -4.819298
H -2.297276 0.287592 -2.636910
H -4.518798 -1.277262 -2.292590
H -5.620309 -2.901839 -0.750193
H -4.372133 -3.822194 1.192820
H -2.013941 -3.125026 1.612222
H 0.435876 -2.528385 -1.591997
H 0.311432 -3.228778 0.077656
H 2.486927 -2.400113 0.241492
H 2.191887 -1.093534 -0.963952
H 2.707122 0.834487 0.146028
H -0.317812 -1.273157 2.092438
