67

C 9.248167 -2.324780 -0.945541
C 8.701575 -1.444903 0.153540
C 9.429035 -1.362230 1.473758
C 7.587405 -0.701415 -0.016507
C 6.747465 -0.724919 -1.276730
O 5.930221 -1.894397 -1.267312
C 4.593753 -1.576545 -1.133714
O 3.681330 -2.440596 -1.074804
C 4.408580 -0.140236 -1.111123
C 3.282401 0.550048 -0.895693
C 1.955102 -0.092120 -0.591285
O 0.970488 0.900037 -0.368622
C 1.000150 1.352331 0.978730
O 0.220283 0.513139 1.819577
C -1.151555 0.498025 1.448523
C -1.862342 -0.512798 2.370035
O -3.272036 -0.556487 2.145636
C -3.866015 -1.107689 1.005796
O -3.171488 -1.733217 0.160271
C -5.312722 -0.926467 0.811690
C -5.945325 -1.308475 -0.306799
C -7.387830 -1.059664 -0.553278
C -8.314863 -0.885772 0.493486
C -9.661224 -0.636899 0.212460
C -10.106828 -0.568555 -1.113553
O -11.448097 -0.310426 -1.395284
C -9.198466 -0.759627 -2.161718
O -9.642786 -0.695091 -3.480948
C -7.846729 -1.009557 -1.880080
C -1.763943 1.920261 1.571504
O -3.118722 1.941569 1.193510
C -0.963082 2.910878 0.711744
O -1.440061 4.213005 0.928361
C 0.532422 2.815545 1.055850
O 0.771245 3.307274 2.350487
C 5.754608 0.481480 -1.337383
O 5.799287 1.120152 -2.590929
H 8.465844 -3.022861 -1.304095
H 10.111340 -2.928980 -0.594352
H 9.593795 -1.695249 -1.788468
H 9.687260 -0.305629 1.700233
H 10.366853 -1.955520 1.462309
H 8.777532 -1.757814 2.277785
H 7.245271 -0.088928 0.816812
H 7.401934 -0.727426 -2.176081
H 3.332054 1.633557 -0.914781
H 2.043759 -0.795117 0.270639
H 1.643447 -0.689297 -1.472462
H 2.040705 1.353154 1.381218
H -1.259029 0.133843 0.401919
H -1.427775 -1.526896 2.223908
H -1.686597 -0.224887 3.429373
H -5.848416 -0.409478 1.594337
H -5.371251 -1.757260 -1.108422
H -8.013947 -0.959346 1.529489
H -10.359206 -0.498953 1.028814
H -12.124624 -0.161643 -0.656145
H -9.005248 -0.821172 -4.260235
H -7.149875 -1.147883 -2.698695
H -1.701427 2.240298 2.635617
H -3.173905 1.661481 0.241480
H -1.098886 2.641835 -0.362603
H -1.079318 4.772978 0.193088
H 1.118573 3.407794 0.314196
H 0.773588 4.298214 2.287071
H 5.959939 1.239808 -0.548468
H 5.598204 0.437736 -3.287136
