49

C 2.453430 0.353224 2.528585
C 1.466765 -0.206347 1.495839
C 1.672734 0.313894 0.039405
C 3.147114 0.209357 -0.339355
C 3.633990 -0.803527 -1.092524
C 2.734241 -1.778397 -1.840248
N 1.376166 -1.836793 -1.257222
C 0.335224 -2.348574 -2.188412
C -0.911743 -1.417760 -2.058056
C -0.583094 -0.591697 -0.810412
C -1.184572 0.792747 -0.618694
C -0.398910 1.880672 -0.347526
C -1.014985 3.221281 -0.210768
O -0.381062 4.149966 0.361933
O -2.278477 3.471284 -0.757924
C -2.919311 4.737525 -0.663754
C 1.130100 1.773515 -0.137432
N -2.417466 0.654554 0.101539
C -2.300991 -0.587751 0.778657
C -3.120823 -1.037239 1.813334
C -2.818876 -2.267925 2.417323
C -1.710659 -3.020125 1.982524
C -0.893655 -2.545280 0.943985
C -1.192635 -1.301695 0.373540
C 0.902409 -0.493479 -1.000302
H 3.480769 -0.019793 2.334786
H 2.155667 0.009496 3.541709
H 2.456378 1.461596 2.528024
H 0.449303 0.057757 1.851104
H 1.564000 -1.313042 1.510741
H 3.848237 0.919353 0.089875
H 4.700998 -0.839508 -1.289308
H 3.188204 -2.790502 -1.796378
H 2.705867 -1.456746 -2.905230
H 0.675740 -2.368516 -3.247718
H 0.065072 -3.384417 -1.892867
H -0.988473 -0.754989 -2.949259
H -1.854862 -2.003461 -1.973662
H -3.906168 4.684676 -1.167481
H -2.301632 5.514364 -1.162163
H -3.073452 5.006767 0.402637
H 1.613234 2.241044 -1.024049
H 1.428441 2.390168 0.734362
H -3.028254 1.429906 0.441110
H -3.967457 -0.450741 2.145539
H -3.441494 -2.640700 3.220162
H -1.490745 -3.972428 2.447174
H -0.053161 -3.133155 0.603733
H 1.048876 0.091440 -1.956877
