74

C 1.107550 1.806243 -2.249205
C -0.379966 2.169072 -2.171742
C -0.975355 2.418048 -3.608774
C -2.549404 2.458208 -3.575045
O -3.053231 1.972407 -4.791312
C -3.097660 1.599360 -2.383857
C -2.219979 0.344073 -2.316010
C -1.304926 1.138910 -1.373951
O -0.748461 0.299662 -0.361313
C -0.117259 0.978022 0.713522
O 1.282805 0.756449 0.599450
C 1.964566 1.183609 1.764976
C 3.449410 1.382155 1.435190
O 3.980099 0.213251 0.816558
C 5.306503 0.118289 0.384658
O 6.084831 1.103216 0.513309
C 5.792327 -1.139598 -0.222554
C 4.933670 -2.247714 -0.339570
C 5.391069 -3.439021 -0.911266
C 6.705999 -3.536657 -1.371336
C 7.567219 -2.442977 -1.261606
C 7.115720 -1.249102 -0.690253
C 1.705544 0.181817 2.929347
O 2.707499 -0.802529 3.008459
C 0.345123 -0.525662 2.723047
O -0.148021 -1.062983 3.926058
C -0.682542 0.411917 2.056140
O -0.990715 1.479785 2.920269
C -2.490483 2.058857 -1.019713
C -3.361675 1.729330 0.214390
O -3.611657 0.333027 0.331553
C -4.396203 -0.212310 1.352519
O -5.062964 0.545528 2.110002
C -4.425393 -1.677107 1.552415
C -5.283926 -2.256288 2.505576
C -5.293127 -3.641268 2.699684
C -4.446997 -4.460308 1.948623
C -3.588716 -3.895795 1.002334
C -3.575742 -2.511867 0.803609
C -1.849005 3.409428 -0.949158
O -2.386413 4.443425 -0.472525
O -0.576048 3.396044 -1.484021
H 1.232602 0.711903 -2.390543
H 1.639831 2.135948 -1.336824
H 1.593283 2.330251 -3.100029
H -0.590935 3.376519 -4.021616
H -0.628745 1.619310 -4.301320
H -2.878090 3.514973 -3.439569
H -4.012339 2.225138 -4.823474
H -4.193443 1.411231 -2.387420
H -1.754880 -0.012782 -3.259395
H -2.738847 -0.496608 -1.808437
H -0.303037 2.073306 0.686463
H 1.592972 2.188156 2.082314
H 3.550403 2.241634 0.736502
H 4.017938 1.616475 2.361548
H 3.910346 -2.196239 0.011156
H 4.725079 -4.287734 -0.996794
H 7.057485 -4.459901 -1.812722
H 8.585711 -2.520440 -1.619871
H 7.800811 -0.413873 -0.616095
H 1.670364 0.766482 3.880334
H 3.406839 -0.461513 3.625001
H 0.501353 -1.378750 2.024424
H -0.245000 -0.320626 4.577433
H -1.598595 -0.186657 1.848139
H -1.793448 1.215461 3.441344
H -2.861360 2.088935 1.137278
H -4.327585 2.270954 0.119953
H -5.946974 -1.640682 3.100496
H -5.955860 -4.079837 3.434435
H -4.454820 -5.531914 2.101365
H -2.930793 -4.530999 0.423502
H -2.894334 -2.097068 0.072483
