53

C -4.418573 -1.111395 1.572610
C -3.542397 -0.457674 0.544506
C -2.335249 -0.932696 0.151548
C -1.791410 -2.282643 0.674151
N -0.361954 -2.271777 1.102412
C -0.220561 -1.593812 2.394620
C -0.026103 -0.114037 2.108676
C 0.447242 -0.013264 0.620631
C 1.902036 0.398581 0.640329
C 2.457940 1.667132 0.846190
C 3.853369 1.781677 0.944589
C 4.666404 0.633723 0.877842
C 4.086139 -0.634002 0.719626
C 2.697973 -0.716375 0.610127
N 1.940239 -1.901301 0.481746
C 0.546161 -1.536099 0.198491
C 0.299693 -1.870056 -1.314203
O 0.202514 -3.262971 -1.492622
C -0.952743 -1.194571 -1.910895
C -1.576521 -0.166970 -0.950636
C -0.506918 0.829621 -0.352831
C -1.276784 1.988980 0.380210
O -2.007474 2.764458 -0.534740
C 0.330492 1.506888 -1.468302
O 1.058431 0.825303 -2.236864
O 0.384530 2.904711 -1.569932
C 1.200668 3.579968 -2.518887
H -5.345645 -0.515345 1.704324
H -3.890831 -1.158107 2.548514
H -4.703025 -2.131751 1.240043
H -3.919211 0.462655 0.105802
H -2.406516 -2.688584 1.502321
H -1.925351 -3.045857 -0.118233
H -1.085332 -1.770312 3.074958
H 0.680113 -1.993705 2.911244
H -0.979777 0.371634 2.343661
H 0.710352 0.310571 2.827089
H 1.831974 2.543654 0.933309
H 4.305076 2.754933 1.085712
H 5.741395 0.727817 0.964016
H 4.699537 -1.524956 0.687893
H 2.343047 -2.862099 0.413062
H 1.178648 -1.511321 -1.896761
H 1.126201 -3.619275 -1.560593
H -1.718966 -1.955655 -2.182724
H -0.702908 -0.712982 -2.880364
H -2.303300 0.412407 -1.564546
H -2.011127 1.622815 1.117563
H -0.551624 2.633333 0.924671
H -2.369443 3.535154 -0.023683
H 0.898304 3.297210 -3.549250
H 2.268917 3.322354 -2.354181
H 1.072349 4.674016 -2.394614
