68

C 2.069959 -0.103690 -2.511787
C 2.852265 -1.014281 -1.900077
C 2.267162 -2.250600 -1.241825
O 0.964043 -2.555014 -1.716432
C -0.044848 -2.140921 -0.807096
O -1.180423 -1.780119 -1.583513
C -2.356040 -1.561261 -0.814571
C -2.221907 -0.338397 0.123274
O -3.489693 0.021554 0.644050
C -4.053639 1.098078 -0.080838
O -3.465179 2.316103 0.331805
C -4.505852 3.215621 0.647147
C -5.826618 2.651727 0.129391
O -5.989538 3.073811 -1.208453
C -7.039457 3.095183 0.985681
O -6.877767 2.729640 2.330913
C -5.551669 1.161987 0.192099
O -6.283173 0.449461 -0.773229
C -2.833914 -2.848477 -0.077137
O -3.979576 -3.362950 -0.709664
C -1.731330 -3.928218 -0.016708
O -1.726912 -4.746307 -1.164614
C -0.358104 -3.272717 0.225608
O 0.661032 -4.240825 0.305026
C 4.351981 -0.786184 -1.784805
O 4.949295 -0.767657 -3.058750
C 4.679673 0.489070 -0.978182
C 6.184494 0.610263 -0.704372
C 6.488053 1.869246 0.070176
C 6.496501 1.953995 1.418940
C 6.248795 0.749584 2.298577
C 6.784308 3.290862 2.052850
H 0.996498 -0.226288 -2.583377
H 2.491777 0.790985 -2.956393
H 2.330269 -2.145360 -0.133410
H 2.916205 -3.114693 -1.497336
H 0.282905 -1.225698 -0.256707
H -3.145306 -1.287236 -1.548811
H -1.572767 -0.598172 0.984320
H -1.708865 0.495289 -0.412501
H -3.899522 0.984127 -1.182059
H -4.292577 4.206459 0.189877
H -4.520774 3.352111 1.751310
H -6.881940 2.774666 -1.522801
H -7.152958 4.200485 0.910046
H -7.964617 2.620537 0.587413
H -7.678756 3.072472 2.807271
H -5.769170 0.766585 1.212583
H -6.165380 -0.513142 -0.558974
H -3.102228 -2.579842 0.972893
H -4.398207 -4.002261 -0.075600
H -1.951185 -4.587703 0.851167
H -1.619252 -4.169675 -1.962891
H -0.411537 -2.790805 1.226350
H 0.680227 -4.739203 -0.552810
H 4.792965 -1.644376 -1.230423
H 4.686637 0.077015 -3.509515
H 4.133354 0.451340 -0.011649
H 4.335074 1.390444 -1.530289
H 6.557409 -0.288672 -0.167893
H 6.728983 0.660992 -1.673606
H 6.681622 2.766126 -0.517356
H 5.260147 0.300265 2.069992
H 7.046363 -0.006607 2.137798
H 6.254281 1.021778 3.374333
H 6.008638 4.025137 1.746229
H 7.782511 3.655741 1.725608
H 6.787253 3.228613 3.161219
