96

C 1.648462 1.063670 3.171248
C 2.624248 -0.020609 2.707930
C 2.713278 -1.199113 3.736618
C 3.680871 -2.222644 3.043445
O 3.795220 -3.422790 3.758212
O 4.926986 -1.566035 2.922660
C 4.660696 -0.544951 1.974261
O 3.936681 0.500563 2.604373
C 3.703208 -1.155408 0.963607
C 4.150447 -1.269108 -0.514571
O 4.934557 -0.152369 -0.926485
C 4.468262 0.876377 -1.755245
O 3.232659 0.989323 -1.996795
C 5.429749 1.812343 -2.378509
C 4.983533 2.849891 -3.220042
C 5.906108 3.692358 -3.854163
C 7.284146 3.507151 -3.656332
O 8.214893 4.322201 -4.296129
C 7.734050 2.484758 -2.815149
C 6.815295 1.643470 -2.179563
C 3.241598 -2.478595 1.566901
C 1.794277 -2.063976 1.294127
C 2.313455 -0.601367 1.279315
O 1.851364 0.353632 0.328718
C 0.537146 0.102447 -0.140143
O -0.343097 -0.194572 0.939494
C -1.645930 -0.419917 0.436110
C -2.469534 -1.172809 1.483789
O -1.954063 -2.495998 1.602021
C -2.610455 -3.514447 2.303169
O -3.665782 -3.260924 2.948987
C -2.083099 -4.894813 2.246040
C -2.787067 -5.963118 2.829547
C -2.287305 -7.265779 2.749795
C -1.083961 -7.516541 2.081903
C -0.375644 -6.461458 1.504323
C -0.870433 -5.158145 1.587454
C -2.304255 0.926791 0.046145
O -3.155538 0.693212 -1.066888
C -4.456440 1.212833 -0.864890
O -4.390160 2.637164 -0.886178
C -5.674651 3.207425 -1.059962
C -5.635531 4.691066 -0.663207
O -4.574487 5.350268 -1.305423
C -6.176593 2.972430 -2.515249
O -5.838436 4.052181 -3.353362
C -5.597037 1.657968 -3.095728
O -4.364902 1.900976 -3.732281
C -5.376437 0.625757 -1.977625
O -6.612488 0.252358 -1.419617
C -1.230917 1.978595 -0.349870
O -0.904941 2.805038 0.742937
C 0.043304 1.340039 -0.954505
O -0.234802 0.961450 -2.278299
H 0.618934 0.657318 3.226886
H 1.937896 1.428551 4.178284
H 1.674512 1.925555 2.473188
H 1.731261 -1.641180 3.986101
H 3.156476 -0.836963 4.686064
H 4.156942 -3.192632 4.651866
H 5.600184 -0.164475 1.534221
H 3.280450 -1.422901 -1.187877
H 4.794974 -2.167726 -0.614658
H 3.924522 3.000007 -3.396719
H 5.552578 4.480490 -4.507413
H 7.926883 5.114046 -4.856881
H 8.797252 2.335461 -2.658414
H 7.193188 0.852936 -1.545582
H 3.618375 -3.405871 1.077137
H 1.487565 -2.449570 0.297857
H 1.052171 -2.324253 2.072123
H 0.588427 -0.764720 -0.838281
H -1.618569 -1.081097 -0.468633
H -2.415795 -0.653414 2.468147
H -3.530937 -1.223803 1.153020
H -3.721722 -5.795978 3.351304
H -2.841827 -8.083343 3.180485
H -0.700984 -8.525549 2.019914
H 0.555100 -6.653643 0.987597
H -0.305690 -4.359915 1.126904
H -2.844034 1.331936 0.939066
H -4.853174 0.867063 0.124378
H -6.398438 2.731913 -0.355806
H -5.479592 4.762358 0.434895
H -6.618070 5.167458 -0.886841
H -4.963355 6.138807 -1.763271
H -7.290049 2.888088 -2.469333
H -6.441878 4.009657 -4.137916
H -6.328248 1.233958 -3.827713
H -4.570313 2.117058 -4.681060
H -4.895168 -0.281475 -2.413755
H -7.029799 -0.400674 -2.038815
H -1.667099 2.651097 -1.125023
H -0.517175 2.235048 1.454910
H 0.831293 2.127729 -0.963371
H 0.632423 0.924400 -2.757726
