55

C 5.207585 -1.629580 -2.032770
C 3.882300 -1.059985 -1.527177
C 4.044066 0.308968 -0.820502
C 4.808561 0.224245 0.518877
C 3.967953 -0.428382 1.623144
C 2.590911 0.236607 1.728706
N 1.896607 0.198916 0.424753
C 0.523161 0.735304 0.547702
C -0.402203 0.046358 -0.459392
C -1.783483 0.633944 -0.394428
C -2.848999 0.239071 0.422512
C -2.850741 -0.949890 1.355312
C -3.652512 -0.678238 2.631672
C -3.379088 -2.163366 0.646089
O -4.508816 -2.126945 0.082965
O -2.616881 -3.336069 0.634602
C -3.043370 -4.519492 -0.028718
N -3.925570 1.037014 0.207169
C -3.538218 1.948608 -0.700488
C -4.297377 2.997369 -1.218316
C -3.686283 3.853057 -2.152322
C -2.344330 3.646416 -2.541018
C -1.603301 2.578161 -2.003579
C -2.238419 1.742009 -1.083511
C 2.670324 0.963150 -0.579902
H 5.850021 -1.947612 -1.186668
H 5.745880 -0.876970 -2.645608
H 5.009198 -2.521402 -2.664918
H 3.216278 -0.936058 -2.409599
H 3.396726 -1.798903 -0.855523
H 4.615805 0.979937 -1.499182
H 5.073241 1.254733 0.842789
H 5.764759 -0.324730 0.402545
H 3.844811 -1.512909 1.416755
H 4.498962 -0.329172 2.594643
H 2.006014 -0.327413 2.488744
H 2.702101 1.286271 2.087393
H 0.504252 1.839524 0.395785
H 0.106224 0.543282 1.563174
H -0.441239 -1.042698 -0.247739
H -0.009546 0.160953 -1.490046
H -1.806635 -1.153991 1.674070
H -3.282845 0.246300 3.124735
H -4.735810 -0.565077 2.414095
H -3.527781 -1.521680 3.342218
H -4.009641 -4.867042 0.394533
H -2.281028 -5.312378 0.114109
H -3.157708 -4.324565 -1.116269
H -4.868130 0.968101 0.649785
H -5.323150 3.151635 -0.909328
H -4.246336 4.678587 -2.572028
H -1.883146 4.312618 -3.258529
H -0.573985 2.416758 -2.295775
H 2.121744 1.012078 -1.545049
H 2.819091 2.014572 -0.241364
