49

C -0.614107 4.669845 1.531177
O -0.235464 3.345584 1.176542
C -0.846836 2.638061 0.136191
O -1.797844 3.160544 -0.507494
C -0.415760 1.255767 -0.174306
C 0.810506 0.797040 0.158050
N 1.954946 1.646804 0.291292
C 3.059271 0.833265 -0.066136
C 4.379408 1.259948 -0.209209
C 5.347393 0.318126 -0.593727
C 4.982154 -1.022087 -0.827419
C 3.645293 -1.428026 -0.685156
C 2.691806 -0.471773 -0.322616
C 1.225612 -0.657959 -0.047039
C 1.009904 -1.471740 1.232778
C 0.299689 -2.734859 0.785667
N -0.367900 -2.456783 -0.493926
C -1.815208 -2.143975 -0.327619
C -2.095545 -0.648240 0.009319
C -3.612910 -0.321306 0.023019
C -4.369088 -1.075097 1.125283
O -4.181914 -0.609658 -1.229036
C -1.333036 0.325201 -0.955590
C -0.463652 -0.442670 -1.966426
C 0.429301 -1.400407 -1.159871
H -0.461213 5.352509 0.668611
H 0.014441 5.013957 2.377895
H -1.680040 4.690048 1.842344
H 1.971001 2.690261 0.287242
H 4.652592 2.290922 -0.025741
H 6.379613 0.622816 -0.707239
H 5.736096 -1.743795 -1.113561
H 3.362877 -2.459988 -0.847671
H 1.959408 -1.727788 1.754489
H 0.367271 -0.929417 1.960600
H -0.393076 -3.100554 1.575494
H 1.054679 -3.533590 0.616761
H -2.333348 -2.411397 -1.273123
H -2.267956 -2.804127 0.442273
H -1.733351 -0.486656 1.048123
H -3.718431 0.768731 0.238518
H -3.866018 -0.940828 2.106381
H -4.439095 -2.157561 0.891077
H -5.402000 -0.675332 1.207662
H -5.038619 -0.110096 -1.278049
H -2.048412 0.926752 -1.557999
H -1.093667 -1.004779 -2.689650
H 0.164690 0.260481 -2.558282
H 1.126540 -1.896172 -1.869903
