111

C -0.274331 1.988823 1.268844
C -1.112710 0.883392 0.681548
C -1.959731 0.223968 1.510102
C -2.869189 -0.910976 1.107584
O -3.787832 -0.499202 0.112396
C -5.013759 0.001780 0.628450
O -4.869480 0.612720 1.906985
C -6.076433 1.248759 2.295373
C -5.825571 1.991597 3.609977
C -7.212205 0.208874 2.458726
O -8.398337 0.843991 2.864407
C -7.428687 -0.544802 1.126551
O -7.903725 0.342548 0.127476
C -9.313516 0.303358 -0.030651
O -9.787299 1.617836 -0.300457
C -9.618666 2.035984 -1.648977
C -8.138759 2.273707 -2.004683
C -10.345444 1.103326 -2.666902
O -11.396515 1.774633 -3.322476
C -10.853303 -0.189829 -1.997389
O -12.008306 0.073639 -1.241318
C -9.753202 -0.753309 -1.089758
O -8.662168 -1.152708 -1.884281
C -6.077603 -1.119611 0.653247
O -5.668276 -2.155004 1.508687
C -0.998378 0.598077 -0.806790
C -0.098848 -0.605107 -1.113259
C 1.316131 -0.384189 -0.630522
C 1.879915 -1.036919 0.412310
C 1.127828 -2.084753 1.197746
C 3.307644 -0.718485 0.784176
O 4.153181 -1.066437 -0.296830
C 5.453611 -1.394408 0.163423
O 5.420588 -2.712938 0.695283
C 6.682826 -3.158461 1.181878
C 7.032010 -2.514756 2.533942
C 7.828133 -3.003729 0.134432
O 8.569586 -4.192991 0.001324
C 7.273284 -2.542013 -1.224506
O 6.464957 -3.547511 -1.784769
C 6.450190 -1.255371 -1.026699
O 7.340829 -0.184614 -0.740204
C 7.256769 0.903737 -1.649229
O 8.368545 0.903332 -2.538131
C 9.618803 1.191120 -1.913797
C 10.204298 -0.023501 -1.159653
O 11.568299 0.166856 -0.892927
C 9.611133 2.502168 -1.080445
O 9.560989 3.605761 -1.949741
C 8.408690 2.575113 -0.123610
O 8.577111 1.707432 0.968529
C 7.121036 2.232719 -0.883974
O 6.033515 2.157061 0.001906
H 0.399368 2.440891 0.512190
H -0.932457 2.786341 1.673109
H 0.355466 1.581640 2.087151
H -1.980011 0.502928 2.559325
H -3.364940 -1.322367 2.015335
H -2.265015 -1.748547 0.704270
H -5.344415 0.773137 -0.107581
H -6.371201 2.013036 1.534996
H -5.561224 1.272749 4.420327
H -6.727826 2.568040 3.910312
H -4.985812 2.705119 3.478235
H -6.900929 -0.528457 3.239653
H -8.972505 0.142238 3.266204
H -8.115588 -1.408861 1.293230
H -9.818160 0.019185 0.921395
H -10.086834 3.045211 -1.716254
H -7.643128 2.851783 -1.195192
H -7.594402 1.318784 -2.152459
H -8.062121 2.853789 -2.946125
H -9.624881 0.797271 -3.462047
H -12.012311 2.132149 -2.629374
H -11.092868 -0.931604 -2.796025
H -12.480623 -0.792665 -1.127051
H -10.176200 -1.640455 -0.555876
H -8.293176 -1.983536 -1.483232
H -6.187039 -1.515949 -0.382188
H -6.197317 -2.960713 1.264235
H -2.000308 0.442563 -1.259900
H -0.583302 1.488616 -1.332536
H -0.547553 -1.535914 -0.716850
H -0.059680 -0.735361 -2.215495
H 1.888103 0.381161 -1.143039
H 1.745679 -2.512548 2.015449
H 0.838572 -2.926480 0.534347
H 0.222883 -1.639078 1.654479
H 3.401580 0.371461 0.976646
H 3.577529 -1.248418 1.729567
H 5.765291 -0.677739 0.959542
H 6.555637 -4.246720 1.391687
H 6.154942 -2.570209 3.217240
H 7.327987 -1.449824 2.417613
H 7.877081 -3.063068 3.000953
H 8.540016 -2.214902 0.481798
H 7.953392 -4.908047 -0.311491
H 8.129675 -2.331172 -1.909393
H 6.363910 -3.332605 -2.750063
H 5.870564 -1.118776 -1.968884
H 6.343600 0.870478 -2.285152
H 10.328827 1.365574 -2.750281
H 9.696782 -0.182666 -0.191570
H 10.063729 -0.943092 -1.767410
H 12.059766 -0.075641 -1.719785
H 10.545121 2.568998 -0.470781
H 10.480568 3.745726 -2.300560
H 8.314732 3.622919 0.256071
H 9.260543 2.119530 1.558930
H 6.926516 3.036776 -1.634141
H 5.816342 3.086674 0.273130
