51

C -2.973199 1.366168 -1.760052
C -1.943435 0.243997 -1.562087
C -1.792614 -0.330719 -0.108019
C -1.646990 0.836092 0.926031
C -0.404058 1.644595 0.647345
C -0.500624 3.116195 0.529483
O -1.354174 3.736212 1.221416
O 0.301385 3.813607 -0.378087
C 0.221851 5.223311 -0.548603
C 0.723576 0.950855 0.424763
N 1.949291 1.487475 -0.080940
C 2.691160 0.363057 -0.516950
C 3.929951 0.392404 -1.155926
C 4.518255 -0.826799 -1.533383
O 5.754834 -0.820961 -2.174225
C 3.856875 -2.045171 -1.261216
C 2.610743 -2.048576 -0.613821
C 2.038881 -0.823911 -0.258828
C 0.758743 -0.561329 0.490832
C 0.850692 -1.082441 1.940412
C -0.147413 -2.233913 2.023319
N -0.594702 -2.487688 0.654923
C -1.797501 -3.307991 0.479378
C -3.107148 -2.535585 0.534541
O -3.118250 -1.570195 1.554092
C -3.107150 -1.091259 0.225199
C -0.486444 -1.252127 -0.118866
H -2.654056 2.295182 -1.245941
H -3.981243 1.074202 -1.408449
H -3.048796 1.598811 -2.843212
H -2.210748 -0.588335 -2.250805
H -0.964315 0.638124 -1.914143
H -1.577250 0.432649 1.957764
H -2.553518 1.478071 0.918690
H 0.955555 5.538880 -1.318359
H -0.797638 5.508448 -0.884500
H 0.459988 5.735830 0.407448
H 2.264684 2.480219 -0.123668
H 4.424909 1.333672 -1.357811
H 6.206922 -1.681905 -2.459167
H 4.311232 -2.985450 -1.545907
H 2.108449 -2.980645 -0.390162
H 1.873293 -1.443130 2.192200
H 0.583183 -0.298923 2.683151
H 0.344411 -3.144002 2.429154
H -0.993708 -1.960289 2.687065
H -1.822474 -4.113045 1.245440
H -1.739701 -3.807323 -0.510533
H -4.074359 -3.076069 0.467357
H -4.089603 -0.635203 -0.008226
H -0.257752 -1.555071 -1.166411
