48

C -0.462232 -1.975157 1.877472
C -1.423687 -1.461993 0.850922
C -2.504650 -2.207957 0.486195
C -3.528599 -1.529911 -0.374439
O -4.592423 -2.102087 -0.727399
C -3.196774 -0.094970 -0.787454
C -1.726036 -0.175735 -1.252102
C -1.344469 -0.036405 0.243340
O -0.195976 0.743666 0.554780
C 0.981050 0.290357 -0.106210
O 2.011159 0.156281 0.860367
C 3.188441 -0.461051 0.335040
C 3.184063 -1.973643 0.615083
O 3.321408 -2.223847 1.987291
C 3.450456 -0.163120 -1.168037
O 4.827613 -0.243442 -1.435576
C 2.919268 1.233917 -1.512058
O 3.650462 2.195475 -0.788311
C 1.406038 1.324748 -1.186680
O 1.088738 2.632008 -0.774586
C -2.711137 0.693983 0.469784
C -3.446752 0.432969 1.819811
C -2.669937 2.245843 0.259806
O -2.433160 2.623812 -1.068222
H 0.208102 -1.169139 2.231041
H -1.020405 -2.355795 2.758734
H 0.138394 -2.801640 1.445701
H -2.667082 -3.207414 0.870523
H -3.908784 0.408486 -1.476015
H -1.420444 -1.132093 -1.738244
H -1.419081 0.681821 -1.881196
H 0.825214 -0.699167 -0.603867
H 4.044223 -0.030770 0.901825
H 4.044120 -2.447838 0.096024
H 2.257192 -2.446817 0.221964
H 2.447715 -2.017419 2.406731
H 2.908972 -0.912079 -1.794620
H 4.925649 -0.290033 -2.422813
H 3.062891 1.398625 -2.607303
H 3.629859 3.036017 -1.316810
H 0.856943 1.081310 -2.126114
H 0.166243 2.822451 -1.084553
H -4.485013 0.822585 1.758926
H -2.919773 0.971046 2.635889
H -3.527668 -0.622192 2.134074
H -3.646534 2.685660 0.566932
H -1.888262 2.684469 0.920042
H -2.405335 3.616186 -1.075689
