50

C -2.216642 -1.549109 2.242258
C -1.395230 -0.604630 1.358019
C -1.591917 -0.827963 -0.180677
C -0.709742 -2.044485 -0.642136
C 0.799549 -1.707136 -0.816420
C 1.748836 -2.842767 -0.880866
O 1.388284 -3.987914 -0.492504
O 3.028606 -2.656837 -1.415553
C 3.982248 -3.707938 -1.508577
C 1.273685 -0.416512 -0.879320
N 2.433647 -0.084844 -0.103005
C 2.008818 0.967512 0.750924
C 2.693432 1.443686 1.868472
C 2.093500 2.449733 2.644639
O 2.761908 2.941810 3.763053
C 0.823101 2.954074 2.288668
C 0.149134 2.453670 1.163399
C 0.753125 1.431697 0.423599
C 0.334450 0.787572 -0.869597
C 0.391492 1.869868 -1.980269
C -1.067916 2.444907 -2.020332
N -1.879648 1.470623 -1.289072
C -3.309254 1.310782 -1.224338
O -4.092046 2.003356 -1.925762
C -3.798490 0.353745 -0.167507
O -4.289496 -0.975657 -0.063927
C -3.069476 -0.906933 -0.701956
C -1.059942 0.310124 -1.073948
H -3.289524 -1.274347 2.232242
H -2.107894 -2.604759 1.922643
H -1.862457 -1.467026 3.291547
H -0.327379 -0.766536 1.619261
H -1.613078 0.439595 1.653267
H -0.824513 -2.882110 0.075232
H -1.077960 -2.432346 -1.617497
H 3.587637 -4.523731 -2.150600
H 4.211372 -4.103512 -0.496408
H 4.915568 -3.314035 -1.960434
H 3.223615 -0.724071 0.135476
H 3.663911 1.043786 2.132866
H 2.357746 3.666850 4.344224
H 0.363225 3.734915 2.880590
H -0.818488 2.848539 0.886735
H 0.636656 1.397159 -2.957345
H 1.138636 2.670020 -1.780213
H -1.427042 2.542214 -3.067263
H -1.114746 3.429536 -1.509296
H -3.572736 0.721306 0.848600
H -3.201806 -1.130023 -1.788549
H -1.044757 -0.151862 -2.103279
