104

C 3.655981 4.719167 1.089929
C 2.948845 3.419748 1.335794
C 3.535354 2.202219 1.212852
C 5.029782 2.120406 0.894138
N 5.625011 0.786779 1.092255
C 6.997432 0.737027 0.563998
C 4.782965 -0.322988 0.612331
C 4.579864 -0.287739 -0.925671
C 3.368630 -1.062121 -1.343984
C 2.047250 -0.597556 -1.311296
N 1.188936 -1.623371 -1.555175
C 1.955575 -2.711175 -1.742603
C 1.517222 -4.016914 -1.973976
C 2.492745 -5.025262 -2.067914
C 3.854972 -4.720705 -1.919379
C 4.264540 -3.391886 -1.698920
C 3.286513 -2.400792 -1.640786
C 1.614755 0.797295 -0.917786
C 0.452005 1.218679 -1.824046
C 0.793239 1.594899 -3.158399
O 2.101876 2.027343 -3.426511
C 2.546837 2.499070 -4.688518
C -0.170495 1.492806 -4.197117
C -1.461235 1.030929 -3.931234
C -1.795508 0.726428 -2.622467
C -2.986307 0.260467 -2.091281
C -2.797063 0.226706 -0.707081
N -1.528005 0.606332 -0.420705
C -0.907513 0.879497 -1.588630
C -3.839814 -0.004483 0.387498
C -4.049039 1.352669 1.027459
O -4.699241 2.247456 0.416329
O -3.365727 1.673502 2.214545
C -3.607953 2.851366 2.960532
C -3.267406 -1.069005 1.402748
C -4.075797 -2.380710 1.318426
C -5.501409 -2.090121 1.828023
C -6.179444 -1.007719 0.944427
C -6.791126 0.152638 1.765522
C -8.043262 -0.289590 2.524351
C -5.205562 -0.558202 -0.191084
N -4.925668 -1.794747 -0.968765
C -4.524724 -1.675563 -2.396293
C -4.168373 -0.263344 -2.860898
C -4.154186 -2.805085 -0.175738
C 1.390888 0.869884 0.604725
C 2.680625 0.957251 1.483860
C 3.496192 -0.375364 1.489199
C 3.880595 -0.748795 2.908149
O 3.699856 -1.929841 3.312846
O 4.501472 0.187661 3.738868
C 4.889654 -0.120185 5.071625
H 4.452701 4.876697 1.847229
H 4.095430 4.717602 0.071846
H 2.938024 5.565406 1.160521
H 1.905439 3.498653 1.628403
H 5.216771 2.483323 -0.143454
H 5.564422 2.814239 1.579091
H 7.633556 1.474996 1.094496
H 7.448962 -0.264300 0.722406
H 7.019966 0.973206 -0.520046
H 5.316641 -1.280576 0.810580
H 4.528501 0.738669 -1.330206
H 5.470270 -0.736356 -1.421641
H 0.150211 -1.593838 -1.545347
H 0.468617 -4.260636 -2.072141
H 2.203702 -6.056353 -2.205185
H 4.601011 -5.495777 -1.990604
H 5.310049 -3.144998 -1.581159
H 2.445656 1.499317 -1.130262
H 1.936323 3.368850 -5.002432
H 3.593254 2.830809 -4.582087
H 2.493756 1.692546 -5.448774
H 0.073867 1.766158 -5.209469
H -2.185425 0.918056 -4.734915
H -1.174372 0.741561 0.548070
H -3.835846 3.713108 2.282253
H -4.450293 2.668409 3.681076
H -2.692211 3.080384 3.541163
H -2.195936 -1.313111 1.209313
H -3.316478 -0.701576 2.460088
H -3.595177 -3.169442 1.941606
H -5.457490 -1.775341 2.894758
H -6.104330 -3.030828 1.803145
H -7.027102 -1.496687 0.407229
H -7.085833 0.968422 1.063152
H -6.058491 0.553196 2.499747
H -8.787724 -0.713112 1.812870
H -8.500553 0.586691 3.026767
H -7.785961 -1.042931 3.297142
H -5.729658 0.176991 -0.814555
H -3.652780 -2.338282 -2.631459
H -5.365652 -2.063385 -3.029650
H -5.021940 0.436101 -2.807650
H -3.926607 -0.329145 -3.935422
H -4.658004 -3.795364 -0.233812
H -3.124769 -2.948036 -0.544717
H 0.775685 1.765043 0.802855
H 0.821041 -0.022484 0.946264
H 2.276611 1.102730 2.511619
H 2.853565 -1.209298 1.136404
H 4.011747 -0.422594 5.675932
H 5.355681 0.774984 5.530676
H 5.636423 -0.946653 5.074106
