47

C -2.948262 3.592316 -1.010186
C -2.407712 2.229243 -0.674816
C -2.090000 1.365694 -1.652416
C -1.491040 0.012789 -1.373277
O -0.070418 0.161593 -1.368173
C 0.821150 -0.906533 -1.518839
O 0.401513 -2.069973 -1.769472
C 2.283778 -0.667998 -1.326211
C 2.626707 -0.665658 0.165531
C 4.093374 -0.396793 0.371025
C 4.560985 0.922629 0.493607
C 5.927892 1.172846 0.652533
C 6.836428 0.111060 0.681863
C 6.380043 -1.203036 0.548465
C 5.014146 -1.458023 0.387982
C -1.969644 -0.582212 -0.013345
C -3.386785 -1.279808 -0.073861
C -3.654936 -2.099705 1.210990
C -4.546086 -0.282978 -0.255494
O -3.427575 -2.165295 -1.170108
C -1.783368 0.460957 1.119386
C -2.284651 1.826807 0.743437
O -2.567335 2.647986 1.657660
H -2.286150 4.370743 -0.567291
H -3.971593 3.700179 -0.583486
H -3.007290 3.762936 -2.110601
H -2.198207 1.659149 -2.690471
H -1.772111 -0.656398 -2.215253
H 2.864904 -1.460111 -1.848375
H 2.550066 0.313519 -1.775949
H 2.025875 0.112034 0.688050
H 2.356924 -1.647781 0.613876
H 3.867892 1.755130 0.464726
H 6.282965 2.190379 0.750590
H 7.894195 0.306580 0.804131
H 7.085220 -2.024197 0.565345
H 4.674269 -2.480143 0.276168
H -1.258246 -1.403089 0.228715
H -2.793888 -2.761861 1.444409
H -4.550145 -2.744222 1.071133
H -3.849790 -1.445319 2.085857
H -5.514546 -0.828186 -0.282012
H -4.458031 0.260885 -1.217380
H -4.593499 0.443660 0.581880
H -2.703781 -2.835800 -1.051433
H -2.266003 0.129676 2.060434
H -0.697235 0.556328 1.339470
