52

C -5.958611 -1.384181 -0.021575
C -4.680123 -0.506679 -0.200764
C -3.600111 -1.455462 -0.805375
C -4.912413 0.770763 -1.023395
C -5.915976 1.572730 -0.158502
C -5.466390 1.244898 1.280046
C -4.253655 0.301006 1.048938
C -3.892766 -0.522096 2.294035
C -3.105040 1.217148 0.530256
O -1.839985 0.553960 0.568167
C -0.633459 1.186375 0.254044
O -0.614142 2.409175 -0.058857
C 0.609314 0.400092 0.294514
C 1.802541 0.928295 0.004764
C 3.025304 0.108291 0.054233
C 4.220762 0.643718 -0.221614
C 5.495061 -0.114265 -0.181324
C 5.544644 -1.534400 -0.283031
C 6.777126 -2.212298 -0.251048
C 7.934811 -1.453005 -0.127628
C 7.900013 -0.100639 -0.043225
C 6.704100 0.610306 -0.071075
O 9.188046 0.387139 0.065453
C 10.087746 -0.730011 0.048619
O 9.246085 -1.884847 -0.076534
C -3.558232 1.518597 -0.919000
H -6.304427 -1.750281 -1.011960
H -5.728854 -2.268236 0.610690
H -6.818777 -0.873843 0.447709
H -3.371441 -2.276840 -0.093998
H -3.984856 -1.912587 -1.742221
H -2.643184 -0.977165 -1.072965
H -5.253532 0.602724 -2.067554
H -5.867982 2.665355 -0.360379
H -6.959318 1.239649 -0.344262
H -6.279172 0.748663 1.852314
H -5.188720 2.167054 1.836545
H -3.591151 0.156947 3.119436
H -4.764803 -1.120719 2.631060
H -3.051596 -1.213551 2.080406
H -3.033272 2.153623 1.129160
H 0.535891 -0.645600 0.569970
H 1.879964 1.973613 -0.272792
H 2.938074 -0.930336 0.343808
H 4.275505 1.702735 -0.449945
H 4.645868 -2.120685 -0.410512
H 6.824337 -3.290542 -0.328880
H 6.712545 1.690998 -0.001697
H 10.660742 -0.774733 0.998453
H 10.771593 -0.658086 -0.822970
H -3.671538 2.612423 -1.084619
H -2.836543 1.144811 -1.675703
