66

C -2.591936 -4.115796 -1.566286
C -1.683034 -3.894109 -0.610687
C -1.236965 -2.494424 -0.241447
C -2.052496 -2.013601 0.975764
O -1.781010 -0.644458 1.236914
C -2.809349 0.206362 0.765004
O -2.795432 0.222867 -0.656194
C -3.829527 1.027557 -1.209018
C -5.221628 0.365758 -1.090804
O -5.187227 -0.935566 -1.612285
C -3.760733 2.493907 -0.707221
O -4.871325 3.223200 -1.163404
C -3.644519 2.581806 0.825932
O -4.881233 2.283069 1.423750
C -2.557308 1.618156 1.326032
O -1.295697 2.087527 0.916887
O -1.657620 -2.772532 2.117463
C -0.308758 -2.969431 2.426414
C 0.640325 -2.786577 1.495793
C 2.061867 -2.692393 1.868302
O 2.485415 -3.295032 2.892351
N 2.945676 -1.858426 1.084111
C 4.357035 -1.681178 1.486419
C 4.713112 -0.188227 1.561620
C 4.200670 0.511823 0.344687
C 3.165356 0.043362 -0.444122
N 2.900672 0.903077 -1.456519
C 3.748204 1.934954 -1.278577
C 3.849375 3.087392 -2.056246
C 4.806275 4.050083 -1.684025
C 5.631118 3.842511 -0.555490
C 5.509551 2.669027 0.211712
C 4.553859 1.734132 -0.182568
C 2.508488 -1.293564 -0.221931
C 0.971011 -1.155381 -0.318675
C 0.294263 -2.481869 0.057075
H -2.914804 -5.129088 -1.781411
H -3.021265 -3.296077 -2.135870
H -1.306296 -4.739836 -0.040262
H -1.440777 -1.828326 -1.107090
H -3.135345 -2.216156 0.801470
H -3.788519 -0.144273 1.163871
H -3.626511 1.077913 -2.301464
H -5.600759 0.356035 -0.047042
H -5.953082 0.950729 -1.687608
H -4.837372 -1.522572 -0.892430
H -2.835161 2.940240 -1.144102
H -4.650636 4.184376 -1.049683
H -3.353198 3.625420 1.093931
H -4.835590 2.612395 2.359550
H -2.601828 1.582944 2.440783
H -0.624335 1.690100 1.531642
H -0.044483 -3.236810 3.442006
H 4.566688 -2.140723 2.474737
H 5.011041 -2.181454 0.739333
H 5.815048 -0.068380 1.635099
H 4.239143 0.261550 2.459772
H 2.191277 0.794210 -2.215420
H 3.212299 3.239248 -2.917550
H 4.911801 4.955794 -2.266508
H 6.364103 4.590400 -0.280409
H 6.138621 2.499806 1.076751
H 2.853435 -1.975449 -1.029486
H 0.696610 -0.886786 -1.362052
H 0.622944 -0.340289 0.353317
H 0.770477 -3.268944 -0.573031
