50

C -4.086070 -0.892139 1.909104
C -3.233415 0.266988 1.386802
O -4.105542 1.324778 0.990784
C -3.697255 2.364177 0.146859
C -2.520018 2.324135 -0.501580
C -2.072865 3.539801 -1.219954
O -0.848370 3.831479 -1.279823
O -3.007471 4.392755 -1.801669
C -1.586266 1.131306 -0.307690
C -0.833216 0.740718 -1.593283
C 0.133776 -0.437172 -1.343964
C 1.354195 -0.062518 -0.542846
N 2.044841 1.102088 -0.609057
C 3.119939 0.920820 0.182810
C 4.128635 1.842366 0.459938
C 5.165100 1.442720 1.325073
C 5.172371 0.145719 1.884922
C 4.144157 -0.766540 1.584841
C 3.132243 -0.341962 0.725368
C 2.015987 -0.986361 0.241647
C 1.510151 -2.364030 0.527622
C 0.354200 -2.744584 -0.449980
C 0.844301 -3.329281 -1.755748
O 2.058836 -3.623432 -1.929186
O -0.074637 -3.584682 -2.769749
N -0.565938 -1.600298 -0.721964
C -1.339714 -1.237560 0.490861
C -2.352576 -0.121635 0.180744
H -3.454480 -1.649901 2.417090
H -4.814258 -0.511418 2.655276
H -4.647415 -1.370768 1.078975
H -2.586207 0.632587 2.215307
H -4.358318 3.214987 0.036427
H -2.713839 5.236855 -2.279681
H -0.841495 1.430259 0.464519
H -0.268438 1.592016 -2.017621
H -1.570501 0.439276 -2.370264
H 0.501463 -0.743806 -2.347356
H 1.814024 1.957137 -1.162212
H 4.114889 2.835057 0.027198
H 5.961685 2.135067 1.562870
H 5.974482 -0.148422 2.550047
H 4.140514 -1.760969 2.009462
H 1.132756 -2.387492 1.571442
H 2.346509 -3.093666 0.474855
H -0.221284 -3.566550 0.030342
H 0.221181 -3.998384 -3.646436
H -1.890897 -2.136537 0.837976
H -0.669614 -0.903779 1.313283
H -3.026136 -0.479203 -0.632379
