55

C -2.323121 -3.862414 -1.825347
C -2.469337 -2.450552 -1.337260
C -1.776598 -1.923605 -0.299110
C -0.804123 -2.777628 0.545325
N 0.548164 -2.177149 0.736721
C 1.316108 -2.257375 -0.508093
C 0.939667 -1.041489 -1.330805
C 0.438490 0.033259 -0.307224
C 1.554441 1.051444 -0.194252
C 1.972780 1.992201 -1.148301
C 3.140680 2.730192 -0.908688
C 3.909149 2.483587 0.240932
C 3.524885 1.483362 1.144942
C 2.347397 0.768051 0.893078
N 1.852965 -0.343426 1.625867
C 2.529151 -0.991869 2.715282
O 2.011128 -1.984508 3.291243
C 0.540770 -0.734160 1.077493
C -0.546965 -0.391889 2.166213
O -0.240435 0.781554 2.881337
C -1.993812 -0.338399 1.630640
C -2.049610 -0.460078 0.092399
C -1.057140 0.568437 -0.589259
C -1.385024 0.689229 -2.117953
O -2.613709 1.336924 -2.329624
C -1.337562 1.979128 -0.022232
O -2.526391 2.313177 0.248203
O -0.335759 2.946990 0.076966
C -0.571317 4.258791 0.572729
H -2.605530 -4.576521 -1.023496
H -2.995609 -4.027572 -2.692994
H -1.278386 -4.046646 -2.153329
H -3.178729 -1.825862 -1.873547
H -0.685252 -3.802873 0.140493
H -1.260289 -2.965724 1.537999
H 2.401791 -2.223909 -0.267112
H 1.137976 -3.204207 -1.066523
H 1.812814 -0.710618 -1.937223
H 0.186864 -1.385515 -2.053030
H 1.411123 2.157681 -2.055019
H 3.460612 3.479603 -1.620872
H 4.814759 3.049757 0.415841
H 4.141830 1.274693 2.007130
H 3.494285 -0.642050 3.051321
H -0.514070 -1.207924 2.920223
H -0.116412 1.514402 2.230245
H -2.493817 0.590691 1.973812
H -2.602023 -1.149849 2.088999
H -3.095116 -0.204247 -0.195338
H -1.459982 -0.293002 -2.617209
H -0.581985 1.262058 -2.626684
H -2.712191 1.439413 -3.312174
H -1.309782 4.781716 -0.070995
H 0.381411 4.826811 0.562450
H -0.949165 4.207912 1.615808
