67

C 8.434119 -2.977759 2.101426
O 8.820763 -2.121164 1.031227
C 7.951641 -1.256727 0.345797
C 6.582623 -1.161474 0.670703
C 5.734466 -0.287079 -0.037920
C 4.292576 -0.143164 0.279718
C 3.567373 -1.088441 0.892888
C 2.134990 -0.906213 1.171283
O 1.491536 -1.845361 1.713241
O 1.501670 0.302314 0.856875
C 0.095142 0.515074 0.974672
C -0.199746 2.019732 0.996257
C -0.691056 2.326173 -0.382600
C -0.840972 3.731010 -0.885963
C -0.908670 1.222298 -1.096807
C -1.138205 1.206305 -2.556511
O -1.842195 2.095848 -3.105999
O -0.551093 0.214649 -3.337402
C -0.600834 0.051080 -0.267049
C -1.051733 -1.210372 -0.400518
C -2.164606 -1.652207 -1.316484
O -3.337164 -1.897667 -0.564032
C -4.038417 -0.695977 -0.275896
O -4.341576 -0.699364 1.110426
C -5.119507 0.436162 1.445619
C -5.140676 0.590885 2.972209
O -3.837942 0.755664 3.465913
C -6.556560 0.298420 0.873475
O -6.989152 1.558357 0.422243
C -6.592514 -0.731319 -0.280474
O -7.748890 -0.551259 -1.059080
C -5.325895 -0.636490 -1.154099
O -5.355632 0.558800 -1.892346
C 6.277955 0.508799 -1.056774
C 7.631241 0.416665 -1.383878
C 8.468885 -0.461601 -0.692294
O 9.816035 -0.527996 -1.049058
H 8.042255 -2.376304 2.948872
H 9.322000 -3.544178 2.450570
H 7.666473 -3.701714 1.753945
H 6.188776 -1.746813 1.487589
H 3.799889 0.765060 -0.048706
H 4.013078 -2.033209 1.172753
H -0.311229 0.036266 1.894564
H 0.711614 2.611363 1.232913
H -0.999924 2.251781 1.732287
H -1.900432 3.922946 -1.154507
H -0.192259 3.889368 -1.772873
H -0.543497 4.455984 -0.099315
H -0.698432 0.187345 -4.339005
H -0.759078 -1.933778 0.349764
H -2.372408 -0.972614 -2.163732
H -1.850930 -2.611317 -1.777706
H -3.421070 0.213117 -0.482478
H -4.645774 1.363486 1.040541
H -5.577715 -0.320397 3.433950
H -5.773294 1.461338 3.261657
H -3.566845 1.686398 3.250716
H -7.245973 -0.073072 1.670507
H -7.979265 1.572369 0.490104
H -6.618898 -1.749576 0.177611
H -7.854128 -1.370283 -1.610684
H -5.341323 -1.497736 -1.863434
H -4.673152 0.469385 -2.608690
H 5.650533 1.199103 -1.607770
H 8.032229 1.032245 -2.178904
H 10.470797 -1.143163 -0.580423
