50

C 0.728835 4.839974 0.437565
O 0.381722 3.487292 0.168798
C 0.841633 2.421360 0.948798
O 1.606607 2.636582 1.928457
C 0.450349 1.037610 0.605819
C -0.766551 0.757073 0.092123
N -1.901561 1.613499 0.259891
C -3.020864 0.744586 0.262988
C -4.341718 1.109337 0.522656
C -5.326443 0.108431 0.503683
C -4.976767 -1.227951 0.227976
C -3.639057 -1.573593 -0.023648
C -2.669130 -0.567355 0.021395
C -1.196515 -0.661730 -0.271540
C -0.958303 -0.941078 -1.759242
C -0.295498 -2.304618 -1.805367
N 0.359445 -2.536936 -0.502326
O 0.266315 -3.864261 -0.219930
C 1.814315 -2.191683 -0.529973
C 2.106037 -0.678095 -0.299941
C 3.639248 -0.430161 -0.223468
C 3.980856 1.066552 -0.214113
O 4.268231 -1.022100 -1.332691
C 1.355136 -0.131875 0.969151
C 0.462111 -1.208242 1.613290
C -0.437503 -1.782849 0.503090
H 1.829965 4.969709 0.372749
H 0.375127 5.128918 1.449895
H 0.244228 5.496577 -0.313710
H -1.910032 2.587593 0.634675
H -4.602771 2.138751 0.730858
H -6.359521 0.365942 0.697685
H -5.743297 -1.991537 0.204919
H -3.368176 -2.595994 -0.252769
H -1.896557 -0.947227 -2.358755
H -0.283996 -0.186145 -2.218151
H -1.093122 -3.065106 -1.977509
H 0.405900 -2.371357 -2.666515
H 2.274942 -2.529794 -1.484605
H 2.347950 -2.765870 0.262380
H 1.749587 -0.147168 -1.208165
H 4.026998 -0.891334 0.715872
H 3.666467 1.539868 0.736016
H 3.490729 1.586180 -1.064930
H 5.079441 1.203465 -0.303075
H 5.219806 -1.163036 -1.085985
H 2.079580 0.175628 1.753192
H -0.162508 -0.767272 2.422757
H 1.075065 -2.010496 2.078535
H -1.176737 -2.460064 0.991196
