49

C -1.113119 -2.653461 0.027344
C -1.235223 -1.113842 -0.121345
O -0.159728 -0.625104 -0.925170
C 1.116902 -0.626948 -0.304669
O 1.339191 0.646826 0.279337
C 2.576982 0.675019 0.970473
C 2.661701 1.986454 1.766251
O 3.851533 2.050792 2.506130
C 3.748781 0.534650 -0.028867
O 3.746766 1.622779 -0.920405
C 3.593354 -0.789626 -0.804312
O 4.541014 -0.872833 -1.837072
C 2.174900 -0.891470 -1.396966
O 1.973015 -2.146132 -1.999585
C -1.340009 -0.413158 1.268783
O -0.502911 -0.616730 2.134994
C -2.537315 0.497085 1.595509
C -3.568859 0.491052 0.427464
C -3.758828 -0.980513 0.042460
C -2.557736 -0.798334 -0.914966
C -2.873421 0.726702 -0.933327
C -1.718309 1.763229 -0.983178
C -3.886807 1.087617 -2.049845
H -0.879716 -3.108866 -0.958736
H -0.316410 -2.942357 0.741489
H -2.046047 -3.118915 0.400377
H 1.212802 -1.427450 0.461401
H 2.625096 -0.155234 1.714627
H 2.620836 2.855472 1.075739
H 1.784359 2.066279 2.448309
H 3.739235 1.437712 3.278912
H 4.706980 0.505728 0.542012
H 4.673089 1.716604 -1.264704
H 3.744217 -1.637385 -0.094096
H 5.419482 -1.039128 -1.405228
H 2.063158 -0.113660 -2.185023
H 2.047105 -2.837578 -1.290635
H -3.035027 0.124122 2.516523
H -2.191092 1.532182 1.799157
H -4.505439 1.060614 0.612296
H -3.652229 -1.699586 0.883383
H -4.713385 -1.160783 -0.497836
H -2.658253 -1.318384 -1.893480
H -1.181391 1.677755 -1.951655
H -0.972663 1.673841 -0.176451
H -2.135761 2.789775 -0.908426
H -4.291258 2.108592 -1.881599
H -3.381823 1.065984 -3.039169
H -4.747740 0.390612 -2.099727
