51

C -5.614319 -0.090475 0.448706
C -4.968634 -0.635942 -0.790001
C -3.649663 -0.886154 -0.884182
C -3.026392 -1.427149 -2.160386
N -1.545666 -1.332040 -2.052180
C -1.032639 -2.213592 -0.933057
C -1.920391 -2.041290 0.333698
C -2.633818 -0.671427 0.222654
C -1.626706 0.426783 -0.278809
C -1.215839 0.101338 -1.760831
C 0.300796 0.283420 -1.820804
C 0.670886 -0.292893 -0.476892
C 0.365088 -1.770421 -0.551425
N 1.361779 -2.553021 -0.274902
C 2.456522 -1.684774 -0.005139
C 3.754323 -2.070362 0.317989
C 4.716986 -1.067513 0.525091
C 4.370193 0.304876 0.399576
O 5.302761 1.334241 0.593681
C 6.669805 1.125920 0.932408
C 3.049302 0.658841 0.068182
C 2.113611 -0.357285 -0.122177
C -0.280300 0.414404 0.504613
O 0.171423 1.749186 0.740003
C -0.383373 2.583588 1.715168
C 0.134016 3.972410 1.871366
O -1.340832 2.188198 2.434445
H -5.166598 0.891379 0.710904
H -5.483748 -0.801928 1.291075
H -6.700828 0.051492 0.271275
H -5.603373 -0.827924 -1.650696
H -3.333177 -2.484833 -2.312801
H -3.377532 -0.840747 -3.038048
H -1.018030 -3.276115 -1.259493
H -2.669528 -2.864353 0.380406
H -1.340310 -2.122523 1.278885
H -3.083254 -0.387567 1.197028
H -2.111721 1.426664 -0.229584
H -1.705838 0.787017 -2.489078
H 0.757947 -0.267299 -2.673942
H 0.571217 1.361064 -1.885632
H 4.016506 -3.116799 0.404251
H 5.725364 -1.365508 0.777026
H 7.175558 0.540246 0.135901
H 6.745574 0.594666 1.904653
H 7.174304 2.109431 1.024778
H 2.765883 1.697806 -0.039046
H -0.332530 -0.122599 1.476883
H 1.176647 4.032285 1.494510
H 0.122273 4.265791 2.942262
H -0.503727 4.671487 1.291690
