78

C -5.979942 -2.630760 -1.541387
O -4.714688 -2.071367 -1.824687
C -3.854548 -2.101084 -0.696335
C -3.521097 -3.551972 -0.171970
C -2.426584 -3.308361 0.930239
C -1.924827 -4.625714 1.523623
O -3.057952 -2.526850 1.927512
C -3.277910 -1.280415 1.288349
O -4.386392 -1.392454 0.410329
C -2.075304 -1.058463 0.394680
C -1.272420 0.238745 0.602324
O -2.131550 1.365633 0.457344
C -1.682212 2.681773 0.609902
O -0.473880 2.907345 0.894551
C -2.627757 3.805249 0.440344
C -3.979697 3.554557 0.144450
C -4.873285 4.615894 -0.025642
C -4.430673 5.933993 0.102507
C -3.091548 6.193820 0.400358
C -2.191993 5.137430 0.568598
C -2.529000 -1.337397 -1.027489
C -1.314138 -2.264180 -1.196787
C -1.303775 -2.375058 0.344162
O -0.075054 -2.309077 1.052987
C 0.900277 -3.190319 0.516332
O 1.629596 -2.580547 -0.537948
C 2.319812 -1.419432 -0.106630
C 2.919281 -0.750470 -1.347923
O 3.487300 0.510552 -1.010431
C 4.082876 1.351050 -1.958492
O 4.051906 1.044598 -3.182473
C 4.751716 2.596432 -1.520170
C 5.379198 3.444607 -2.452103
C 6.024177 4.612900 -2.028489
C 6.052752 4.945976 -0.671704
O 6.705894 6.106413 -0.259761
C 5.426597 4.109048 0.261835
C 4.779154 2.943244 -0.159227
C 3.414545 -1.800435 0.924292
O 4.131880 -0.678511 1.384304
C 2.810363 -2.580856 2.114486
O 2.183113 -1.735284 3.049892
C 1.851371 -3.689302 1.631007
O 2.614162 -4.766174 1.147092
H -6.428074 -2.224611 -0.608395
H -5.918975 -3.738394 -1.497413
H -6.669059 -2.374830 -2.372458
H -3.187543 -4.234515 -0.982092
H -4.417514 -4.009608 0.298085
H -1.177038 -4.428429 2.318059
H -1.474847 -5.262989 0.733928
H -2.772182 -5.182056 1.977676
H -3.436189 -0.472063 2.032517
H -0.456595 0.309398 -0.147379
H -0.827370 0.237413 1.621074
H -4.347759 2.541017 0.043940
H -5.910869 4.415941 -0.255795
H -5.125549 6.753177 -0.027274
H -2.750082 7.214880 0.503493
H -1.157485 5.362523 0.795723
H -2.602756 -0.447846 -1.689728
H -1.470895 -3.202544 -1.764348
H -0.451226 -1.690479 -1.598460
H 0.420897 -4.100513 0.092289
H 1.612942 -0.686407 0.336778
H 3.695276 -1.406579 -1.798390
H 2.111124 -0.593116 -2.094809
H 5.376793 3.203049 -3.506736
H 6.506839 5.254515 -2.752383
H 6.771539 6.356454 0.720485
H 5.439450 4.363571 1.314444
H 4.297739 2.314508 0.583789
H 4.139161 -2.477264 0.417831
H 3.472070 0.002022 1.685283
H 3.652503 -3.069974 2.650428
H 1.492369 -1.202870 2.581084
H 1.249711 -4.032764 2.504439
H 2.023848 -5.565393 1.158055
