48

C 3.301140 3.398202 0.963534
C 2.541395 2.456538 0.093668
O 2.976546 2.183916 -1.058104
O 1.337911 1.911379 0.555716
C 0.548159 0.984028 -0.194131
C -0.937571 1.102421 0.251677
C -1.957476 1.023281 -0.941769
C -1.604522 -0.183028 -1.858670
C -1.274747 -1.389507 -0.936137
C 0.230706 -1.431611 -0.774131
N 1.036185 -2.237830 -1.393157
C 2.331305 -1.935736 -0.889059
C 3.514103 -2.601233 -1.206672
C 4.690110 -2.225868 -0.534742
C 4.657365 -1.217552 0.450488
C 3.450909 -0.569175 0.763076
C 2.304483 -0.931231 0.053871
C 0.894096 -0.471870 0.184816
C 0.218308 -0.671457 1.518069
C -1.173483 -0.137606 1.180392
N -1.925025 -1.188219 0.414853
C -3.335552 -0.737298 0.217856
C -4.166648 -0.907319 1.498179
C -3.358614 0.734553 -0.327751
C -4.471912 0.952092 -1.323004
O -5.636555 0.828875 -0.979062
H 3.105177 4.441474 0.640070
H 2.984079 3.278170 2.020683
H 4.388908 3.187692 0.890082
H 0.673920 1.183919 -1.280090
H -1.102178 2.044700 0.820825
H -1.953952 1.974575 -1.517771
H -2.463259 -0.443168 -2.514504
H -0.773985 0.062876 -2.555407
H -1.629034 -2.339298 -1.393093
H 3.524442 -3.395759 -1.941315
H 5.622469 -2.725991 -0.762226
H 5.563989 -0.949415 0.977035
H 3.413407 0.183224 1.539336
H 0.701354 -0.054468 2.308496
H 0.193506 -1.737040 1.840703
H -1.691304 0.143254 2.120997
H -3.810271 -1.412955 -0.532603
H -5.244701 -0.777115 1.266133
H -4.020082 -1.928307 1.909751
H -3.893506 -0.163874 2.274037
H -3.527367 1.452850 0.506541
H -4.252228 1.235911 -2.347488
