53

C -0.596752 2.795487 2.178701
O -0.221424 1.949708 1.096471
C -0.642597 2.104354 -0.233973
C -1.476881 3.179562 -0.603482
C -1.891770 3.346697 -1.928319
C -2.747235 4.518468 -2.311794
C -1.440641 2.457681 -2.904748
C -0.618752 1.386331 -2.558774
C -0.217219 1.170526 -1.220132
C 0.684954 -0.034346 -0.873917
O 0.814196 -0.860784 -2.013001
C 0.066259 -0.884554 0.268222
O -1.313097 -1.128115 0.006298
C -2.148239 -1.794221 0.906519
O -1.692574 -2.236278 1.997625
C -3.608518 -1.936008 0.582912
C -4.068332 -3.388604 0.745763
C -4.437904 -0.994957 1.460333
C 2.087895 0.485609 -0.476005
O 2.944006 -0.599267 -0.127753
C 4.270378 -0.419087 0.275301
O 4.770144 0.737595 0.338585
C 5.104470 -1.614482 0.637975
C 4.484343 -2.350750 1.829176
C 5.245347 -2.547596 -0.568028
H -0.245064 3.832096 1.993592
H -0.122953 2.422059 3.109525
H -1.699225 2.779680 2.311324
H -1.806488 3.897144 0.135572
H -2.098036 5.381942 -2.564875
H -3.379987 4.271901 -3.190242
H -3.419788 4.803240 -1.475415
H -1.726068 2.592813 -3.940811
H -0.299960 0.729838 -3.356786
H 1.406843 -1.626697 -1.793207
H 0.595386 -1.859181 0.351034
H 0.178902 -0.387474 1.252810
H -3.764315 -1.644669 -0.479417
H -3.458630 -4.056251 0.099718
H -5.131866 -3.487100 0.440642
H -3.968872 -3.719352 1.802360
H -5.511741 -1.061903 1.183418
H -4.106447 0.055237 1.313276
H -4.327943 -1.258453 2.534454
H 2.530545 1.039911 -1.333255
H 2.024115 1.179956 0.387717
H 6.122250 -1.273981 0.932803
H 4.403217 -1.665941 2.700540
H 5.124904 -3.210158 2.121884
H 3.470907 -2.730986 1.575345
H 4.253310 -2.936089 -0.884741
H 5.900328 -3.407640 -0.311120
H 5.706618 -2.002909 -1.420100
