28

C -2.436482 1.328816 -0.213580
C -1.321537 0.289051 -0.361100
C -1.817728 -1.140506 0.106886
C -0.611143 -1.986268 0.512002
O -0.681383 -3.200120 0.618004
C 0.670184 -1.226630 0.822465
C 0.211287 -0.048424 1.699815
C -0.007049 0.709087 0.387616
O 0.328235 2.073945 0.408458
C 0.968802 -0.202287 -0.322407
C 2.447560 0.262841 -0.404483
O 2.991195 0.528631 0.859228
C 0.337442 -0.408892 -1.715679
O -0.956273 0.163090 -1.715666
H -2.128994 2.297515 -0.660696
H -3.353286 0.981725 -0.736112
H -2.673092 1.487341 0.860137
H -2.370516 -1.641646 -0.717471
H -2.503234 -1.059423 0.978006
H 1.524568 -1.821276 1.212350
H 1.034401 0.377384 2.312327
H -0.705626 -0.196568 2.313650
H 0.346544 2.378589 -0.535618
H 3.039999 -0.540916 -0.895647
H 2.516544 1.178308 -1.033914
H 3.930393 0.808459 0.702953
H 0.935487 0.095721 -2.504392
H 0.283701 -1.487546 -1.977132
