50

C -0.352540 1.911549 1.892270
C -1.550100 1.269970 1.189919
C -2.344829 2.319977 0.327743
C -3.464953 1.462461 -0.359231
O -4.212027 2.228707 -1.264375
O -4.269787 0.971403 0.694562
C -3.408135 0.056525 1.353233
O -2.475803 0.778240 2.140537
C -2.592539 -0.606025 0.257369
C -2.715000 -2.143175 0.168647
O -1.940932 -2.658126 -0.879538
C -2.851505 0.181586 -1.018770
C -1.331890 0.286178 -1.226650
C -1.199612 0.022217 0.295500
O -0.224342 -0.873434 0.815773
C 1.004614 -0.841769 0.110881
O 1.489090 0.487427 -0.006196
C 2.603564 0.584584 -0.889466
C 2.123267 0.882513 -2.320829
O 3.209641 1.139448 -3.168834
C 3.557350 -0.649936 -0.828804
O 4.879839 -0.311541 -1.171006
C 3.485620 -1.306732 0.562600
O 3.941938 -0.409088 1.546137
C 2.023970 -1.709372 0.885138
O 1.810095 -3.058973 0.557902
H -0.704779 2.692422 2.599310
H 0.215550 1.151030 2.469066
H 0.318245 2.394015 1.151945
H -1.705968 2.859625 -0.401478
H -2.807112 3.086740 0.987504
H -4.982899 1.669487 -1.544308
H -3.986532 -0.658174 1.976508
H -3.782454 -2.410763 0.006362
H -2.381110 -2.588625 1.132654
H -2.056722 -3.642967 -0.850336
H -3.452531 -0.341785 -1.794012
H -0.949752 1.255526 -1.601001
H -0.978481 -0.547770 -1.867936
H 0.856622 -1.301324 -0.891942
H 3.175619 1.475488 -0.550598
H 1.557132 0.016955 -2.723352
H 1.433590 1.756843 -2.310667
H 3.528528 2.054472 -2.954212
H 3.214750 -1.409182 -1.567124
H 5.180878 0.411558 -0.562665
H 4.124445 -2.222764 0.561948
H 4.920451 -0.548584 1.641739
H 1.846128 -1.566124 1.978841
H 2.221411 -3.600715 1.281241
