25

C -0.405950 0.763331 1.758556
C -0.792742 0.039316 0.440511
C -2.238608 -0.502642 0.585269
C -0.598346 0.797193 -0.897108
C -0.200425 -0.534718 -1.559071
C 0.195858 -1.002292 -0.148181
O -0.107638 -2.341370 0.141382
C 1.685846 -0.591533 0.086756
C 1.971177 0.878965 -0.404478
C 0.691337 1.604993 -0.836629
O 0.706763 2.790103 -1.128277
H -0.418882 0.035540 2.597321
H -1.147480 1.561009 1.976398
H 0.586998 1.244119 1.757200
H -2.299510 -1.196654 1.450585
H -2.587454 -1.051825 -0.312890
H -2.942543 0.338979 0.759309
H -1.486650 1.309304 -1.327247
H -1.075010 -1.083711 -1.971719
H 0.626579 -0.487302 -2.305040
H 0.416740 -2.890634 -0.497044
H 1.931827 -0.689615 1.165812
H 2.349481 -1.293804 -0.462919
H 2.473103 1.453709 0.402859
H 2.665529 0.849541 -1.271354
