75

C 1.947199 -2.757565 -0.725476
C 1.769791 -1.826128 0.221449
C 1.278240 -0.419510 -0.071409
C 2.339512 0.383015 -0.893525
O 2.839708 1.456530 -0.108427
C 4.188878 1.243107 0.275639
O 4.251483 0.198198 1.229556
C 5.588978 -0.209310 1.514276
C 5.983818 -1.410472 0.640066
O 7.226964 -1.926517 1.036989
C 6.634072 0.967134 1.571837
O 7.449515 1.103771 0.425132
C 5.910123 2.284470 1.883562
O 6.834632 3.342303 1.880389
C 4.768392 2.553214 0.872279
O 3.764446 3.333518 1.476323
O 1.791682 0.931930 -2.093786
C 0.839556 0.249849 -2.846363
C -0.066685 -0.511766 -2.224644
C -1.023731 -1.340269 -2.995020
O -0.886755 -1.477817 -4.244409
O -2.084992 -1.963186 -2.332222
C -3.108565 -2.679292 -3.012248
C -0.147312 -0.437601 -0.709931
C -0.968054 0.801989 -0.244854
C -2.433913 0.814771 -0.740818
N -3.045106 2.143194 -0.540114
C -4.429632 2.272928 -1.093564
C -5.211035 3.302569 -0.308351
O -5.524344 3.063532 0.894701
O -5.538934 4.530380 -0.881554
C -5.252863 0.933922 -1.197609
C -4.675103 -0.111657 -0.307841
C -3.329028 -0.196870 -0.082966
N -3.042022 -1.101184 0.888311
C -4.235101 -1.628081 1.227122
C -4.476847 -2.600112 2.194076
C -5.814785 -2.982534 2.418968
C -6.866969 -2.386730 1.681744
C -6.595509 -1.397946 0.717657
C -5.262877 -1.043625 0.515031
H 1.738919 -2.550902 -1.768376
H 2.319745 -3.736374 -0.448708
H 2.006098 -2.085135 1.251617
H 1.193056 0.058288 0.933548
H 3.138186 -0.324009 -1.228779
H 4.784738 0.999579 -0.632480
H 5.546763 -0.617536 2.549866
H 5.222528 -2.208297 0.777725
H 5.978602 -1.153556 -0.440917
H 7.916375 -1.496750 0.469175
H 7.325680 0.756609 2.416240
H 6.905635 0.902373 -0.381941
H 5.475545 2.174415 2.910789
H 6.437706 4.074556 2.418951
H 5.184842 3.141418 0.026872
H 3.342322 2.780202 2.185758
H 0.855950 0.347510 -3.925101
H -3.858535 -3.039858 -2.274039
H -2.676061 -3.552661 -3.545293
H -3.615195 -2.006416 -3.736871
H -0.662907 -1.347412 -0.343180
H -0.464465 1.723577 -0.616588
H -0.971404 0.856710 0.867748
H -2.435978 0.621525 -1.833234
H -3.045459 2.351386 0.485372
H -4.327233 2.678476 -2.128253
H -6.077748 5.219209 -0.370999
H -6.336079 1.082168 -0.965074
H -5.187089 0.560278 -2.242135
H -2.120253 -1.301386 1.341024
H -3.662330 -3.044323 2.760435
H -6.033634 -3.746913 3.156322
H -7.887734 -2.692651 1.864343
H -7.397413 -0.926251 0.160533
