53

C -3.342618 -2.936502 0.228265
C -2.685899 -2.480472 -0.845061
C -1.412468 -1.664692 -0.750619
C -0.278258 -2.480725 -0.101218
N 0.963776 -1.683957 -0.070054
C 2.097344 -2.515434 0.403566
C 3.433597 -1.777779 0.199920
C 3.304754 -0.372223 0.689494
C 2.095037 0.259299 0.899913
N 2.279721 1.520603 1.358313
C 3.615908 1.693748 1.390461
C 4.310156 2.836223 1.785797
C 5.716623 2.797259 1.748935
C 6.391192 1.629377 1.326442
C 5.666613 0.487892 0.937309
C 4.275699 0.558338 0.982218
C 0.783314 -0.471905 0.776993
C -0.294528 0.435415 0.155423
C -1.624084 -0.332344 0.014007
C -2.712968 0.541898 -0.618294
C -3.852003 0.799281 0.052606
O -4.078299 0.290601 1.333044
C -5.288378 0.544374 2.031634
C -2.551797 1.102586 -1.989873
O -1.543138 0.808455 -2.687034
O -3.526245 1.959966 -2.515317
C -3.432510 2.524607 -3.817580
H -4.253666 -3.511777 0.100701
H -2.986165 -2.742332 1.234339
H -3.086538 -2.699337 -1.830570
H -1.088537 -1.441512 -1.789092
H -0.560571 -2.799069 0.928369
H -0.121580 -3.398197 -0.712015
H 1.970010 -2.768765 1.481077
H 2.146478 -3.468630 -0.167884
H 3.689330 -1.759028 -0.880987
H 4.241182 -2.301909 0.754101
H 1.550217 2.210095 1.645216
H 3.785729 3.725760 2.109951
H 6.285649 3.668036 2.047579
H 7.473011 1.611920 1.304171
H 6.174309 -0.412741 0.617017
H 0.466707 -0.763706 1.804984
H -0.465343 1.320828 0.805406
H 0.067272 0.793911 -0.830721
H -1.914028 -0.600923 1.053163
H -4.625907 1.409920 -0.398342
H -5.249240 0.045799 3.021749
H -5.418017 1.637128 2.181743
H -6.149204 0.140592 1.457692
H -4.319547 3.164612 -4.001918
H -3.405694 1.718009 -4.580545
H -2.516399 3.147428 -3.896849
