112

C -0.353343 -0.432388 -4.302483
C 1.005955 -0.308175 -3.638506
C 2.085068 -0.424046 -4.460788
C 3.508040 -0.020777 -4.150342
O 4.038728 -0.709690 -3.025211
C 4.622900 0.228168 -2.103836
O 5.819299 0.801182 -2.593506
C 6.859097 -0.135916 -2.905283
C 8.210456 0.563931 -2.619084
C 6.773082 -1.528481 -2.186356
O 6.645577 -2.519047 -3.170744
C 5.665094 -1.688237 -1.086794
O 4.730578 -2.655524 -1.491420
C 4.848006 -0.456248 -0.779863
O 5.520337 0.441017 0.032859
C 5.385563 0.200507 1.440941
O 6.425019 -0.667232 1.859608
C 7.689045 -0.185839 1.430226
C 8.796732 -1.161781 1.832797
O 8.711051 -1.425291 3.225678
C 7.979219 1.258902 1.994179
O 8.291874 1.179777 3.395610
C 6.799351 2.216470 1.775372
O 6.740568 2.583809 0.409783
C 5.540227 1.505336 2.260003
O 4.429483 2.337991 2.110346
C 1.030208 0.050841 -2.168050
C -0.043736 -0.790640 -1.424551
C 0.140448 -0.852378 0.066650
C -0.871714 -1.116255 0.909247
C -0.544112 -1.549639 2.309372
C -2.307562 -1.096831 0.456289
O -2.693419 0.248291 0.255615
C -4.061849 0.356518 -0.097536
O -4.277445 1.599784 -0.762760
C -3.821845 2.692910 0.036824
C -4.044477 3.955775 -0.760239
C -4.454377 2.749396 1.458978
O -5.802361 3.193440 1.443459
C -4.395913 1.368765 2.122569
O -5.093621 1.353413 3.336344
C -4.958331 0.312999 1.165285
O -6.288341 0.716750 0.775367
C -7.243899 -0.255654 1.150965
O -7.489212 -1.093700 0.027705
C -8.574487 -1.979556 0.188049
C -8.294131 -3.082937 1.246169
O -8.443212 -2.622308 2.577987
C -9.902097 -1.207224 0.297614
O -10.741961 -1.772911 1.277752
C -9.694781 0.278371 0.603532
O -10.876218 0.872162 1.098523
C -8.533160 0.491526 1.584543
O -8.858912 0.079144 2.893374
H -0.796855 -1.430439 -4.067168
H -1.019013 0.377455 -3.890064
H -0.299187 -0.292401 -5.416075
H 1.879708 -0.661026 -5.528270
H 3.551752 1.086236 -4.108832
H 4.131880 -0.338637 -5.019157
H 3.958794 1.078540 -1.897504
H 6.828879 -0.335899 -4.002470
H 8.093192 1.670941 -2.777006
H 8.962324 0.167384 -3.347785
H 8.556042 0.368124 -1.574894
H 7.748323 -1.740623 -1.682948
H 6.625885 -3.419287 -2.720218
H 6.173381 -2.070337 -0.162695
H 4.152292 -2.828401 -0.711932
H 3.838772 -0.729994 -0.409105
H 4.407232 -0.269218 1.712214
H 7.726896 -0.152099 0.278624
H 8.676257 -2.100474 1.207058
H 9.782104 -0.671882 1.557837
H 9.676295 -1.575110 3.533748
H 8.854105 1.684367 1.442957
H 9.078624 1.808049 3.540837
H 6.953529 3.125915 2.376266
H 5.881109 3.085850 0.335195
H 5.655622 1.222552 3.330448
H 3.746142 2.012785 2.742089
H 2.004511 -0.142883 -1.721698
H 0.766816 1.156599 -2.053911
H -1.041401 -0.340600 -1.686698
H 0.011604 -1.817086 -1.802399
H 1.173494 -0.904365 0.415821
H -0.360882 -2.649331 2.299036
H 0.360206 -1.037700 2.664442
H -1.371014 -1.302519 3.005193
H -2.397988 -1.669494 -0.514411
H -2.933149 -1.598674 1.243667
H -4.363077 -0.467626 -0.781599
H -2.745177 2.625342 0.173176
H -5.095197 4.311657 -0.764773
H -3.758173 3.791866 -1.829620
H -3.396088 4.772469 -0.386488
H -3.895798 3.458773 2.062924
H -6.237719 3.152081 0.572181
H -3.339550 1.146587 2.319039
H -4.965158 0.435772 3.702899
H -4.883204 -0.709753 1.652335
H -6.921443 -0.855283 2.025163
H -8.612395 -2.559511 -0.771666
H -7.240891 -3.391059 1.173875
H -8.899158 -3.978718 1.052528
H -9.298475 -3.054949 2.947159
H -10.395383 -1.270337 -0.694038
H -11.659014 -1.852816 0.902372
H -9.389314 0.785406 -0.346592
H -11.423418 1.108812 0.301684
H -8.342177 1.584162 1.652015
H -9.801961 0.334967 3.124978
