56

C -0.198903 5.119058 -0.913658
O -0.241796 3.889321 -0.200743
C -1.203819 2.904756 -0.449509
O -2.087838 3.101240 -1.329173
C -1.140462 1.595427 0.333781
O -1.093136 1.948919 1.696097
C -2.402284 0.668860 0.075919
C -2.076966 -0.577986 -0.860250
C -3.383234 -1.309983 -1.298618
C -3.644088 -2.624174 -0.550800
C -3.057633 -2.592234 0.855287
N -1.586889 -2.524735 0.794389
C -0.973992 -2.253207 2.101492
C -0.312453 -0.890671 2.024220
C 0.045043 -0.722701 0.529570
C 1.492694 -1.098383 0.384442
C 2.100341 -2.353592 0.425039
C 3.501337 -2.416122 0.392125
C 4.268819 -1.235887 0.336114
C 3.638164 0.030087 0.310662
O 4.351372 1.235328 0.239933
C 5.771088 1.322494 0.186391
C 2.242267 0.062707 0.354079
N 1.424612 1.227026 0.247221
C 0.093729 0.729642 -0.100981
C 0.022025 0.582217 -1.670131
C -1.347632 0.002841 -2.100555
C -1.028537 -1.565733 -0.186735
H -1.143326 5.682191 -0.757699
H 0.649314 5.727783 -0.539019
H -0.051472 4.924488 -1.997133
H -0.207908 2.356182 1.884995
H -2.799869 0.310486 1.043675
H -3.241487 1.254397 -0.354631
H -4.262408 -0.644129 -1.159355
H -3.360554 -1.547389 -2.385006
H -4.738598 -2.810822 -0.495012
H -3.185312 -3.468515 -1.111598
H -3.489471 -1.747923 1.432541
H -3.349044 -3.530197 1.375696
H -0.201002 -3.027080 2.295343
H -1.702901 -2.294952 2.943445
H 0.566014 -0.832011 2.706113
H -1.060461 -0.183216 2.401893
H 1.509075 -3.257493 0.484547
H 3.995959 -3.378425 0.416434
H 5.346570 -1.320058 0.309894
H 6.067041 2.390210 0.134257
H 6.151417 0.802971 -0.718407
H 6.215651 0.873959 1.099832
H 1.788805 2.174367 0.002127
H 0.825907 -0.095788 -2.032815
H 0.201833 1.554675 -2.176922
H -1.968061 0.792619 -2.577174
H -1.182896 -0.787020 -2.867129
H -0.544648 -2.173826 -0.984502
