27

O -2.772794 -0.586179 -0.633643
C -1.761744 -0.809656 0.314733
C -0.602237 -1.624830 -0.293394
C 0.690734 -1.031172 0.280885
C 1.906749 -1.037622 -0.701813
C 2.688189 0.330279 -0.730083
Cl 3.804131 0.404104 0.660523
O 1.897480 1.534002 -0.740089
C 0.524547 1.248805 -0.589719
O -0.268428 2.381395 -0.388398
C -1.483182 1.842814 0.110778
C -1.161412 0.515139 0.866479
O -1.456209 0.624988 2.242251
C 0.316077 0.388883 0.634994
H -3.215047 -1.461312 -0.789889
H -2.184653 -1.394166 1.166382
H -0.629900 -1.533192 -1.401261
H -0.690376 -2.701616 -0.031465
H 0.958964 -1.570424 1.217078
H 2.598767 -1.863880 -0.430220
H 1.569219 -1.249370 -1.739192
H 3.324742 0.335063 -1.640069
H 0.165623 0.763948 -1.533264
H -2.186159 1.702989 -0.736106
H -1.948763 2.585119 0.793720
H -1.001026 1.433114 2.598533
H 0.916710 0.772780 1.492249
