47

C -4.898378 1.733021 0.003914
C -3.591813 2.165637 -0.599963
C -2.421851 1.511359 -0.421921
C -1.137660 2.120170 -0.950065
O -0.193330 1.132567 -1.329497
C 0.057497 0.112781 -0.355949
C -0.837613 0.177985 0.907330
C -2.293119 0.262965 0.432671
C -2.700076 -1.013423 -0.369561
C -3.105657 -2.154359 0.585150
O -3.604720 -3.252887 -0.130661
C -1.598153 -1.487869 -1.297640
O -1.891993 -2.208140 -2.290052
N -0.219809 -1.186557 -1.011450
C 0.770146 -2.282179 -1.098920
C 2.190319 -1.765314 -1.357578
C 2.475301 -0.647130 -0.419678
C 1.506284 0.218405 0.041977
N 2.063009 1.240382 0.735320
C 3.389519 1.007665 0.712340
C 4.395711 1.801784 1.260477
C 5.730003 1.395110 1.073475
C 6.026648 0.223531 0.340996
C 4.992122 -0.554628 -0.210161
C 3.680809 -0.133842 0.004487
H -4.828904 1.731017 1.111469
H -5.695370 2.447454 -0.290429
H -5.187342 0.726321 -0.357543
H -3.601378 3.081366 -1.185269
H -1.350880 2.741960 -1.845697
H -0.695045 2.791822 -0.182890
H -0.681419 -0.722045 1.541214
H -0.594898 1.064346 1.534509
H -2.929056 0.372662 1.337684
H -3.587055 -0.776692 -0.995069
H -3.876403 -1.798184 1.306518
H -2.226349 -2.490023 1.174591
H -4.518260 -3.005708 -0.430855
H 0.503452 -2.985512 -1.917117
H 0.755344 -2.852367 -0.144475
H 2.268989 -1.391493 -2.400792
H 2.922232 -2.587763 -1.209735
H 1.576245 2.064557 1.152795
H 4.160076 2.705390 1.807621
H 6.534962 1.988162 1.487585
H 7.057116 -0.074646 0.198271
H 5.210749 -1.447655 -0.781055
