66

C -0.442749 6.653689 0.309297
C -1.295669 5.399414 0.141162
C -0.640964 4.412868 -0.833204
C -1.468894 3.163536 -0.972300
O -2.669213 3.262079 -1.349446
C -0.895587 1.823555 -0.688722
C -1.597766 0.901323 -0.004915
O -2.864590 1.253873 0.476673
C -1.037233 -0.472763 0.227619
C 0.262614 -0.737828 -0.066911
O 0.800703 -2.016009 0.149266
C 0.022176 -3.193123 0.340650
C -0.375290 -3.721462 -1.051333
C 0.937475 -4.231786 1.015599
C -1.174882 -2.816257 1.269107
C -2.158811 -3.945344 1.653218
C -3.197796 -4.286964 0.573725
C -3.626786 -3.119388 -0.287818
C -4.720260 -3.339526 -1.297945
C -3.018053 -1.918718 -0.239702
C -1.946311 -1.571663 0.770929
C 1.224773 0.343085 -0.545366
C 2.187046 -0.278777 -1.586488
C 2.012229 0.854914 0.690739
C 2.988050 1.967481 0.362726
C 4.334106 1.845328 0.365672
C 5.161754 3.045204 -0.018006
C 5.026146 0.557174 0.743692
C 0.453520 1.485678 -1.179166
O 0.979667 2.182985 -2.091071
H -0.315678 7.167809 -0.667769
H 0.556323 6.389288 0.717594
H -0.942441 7.350213 1.015534
H -1.422935 4.914010 1.134428
H -2.298586 5.696859 -0.237828
H 0.373303 4.162335 -0.454276
H -0.533289 4.884094 -1.834808
H -3.468809 0.631322 0.993207
H -1.047106 -3.018995 -1.581192
H 0.534692 -3.829251 -1.680515
H -0.844572 -4.721481 -0.988236
H 1.872111 -4.355713 0.426697
H 0.447469 -5.225173 1.083184
H 1.221169 -3.900619 2.037249
H -0.705736 -2.501839 2.231219
H -1.618656 -4.864890 1.955313
H -2.715519 -3.610450 2.556714
H -2.811785 -5.093869 -0.079738
H -4.097833 -4.703973 1.075311
H -5.096235 -4.383230 -1.256231
H -5.566686 -2.651610 -1.090856
H -4.334510 -3.147413 -2.321406
H -3.371532 -1.132811 -0.903589
H -2.466638 -1.172436 1.667249
H 2.906057 0.474302 -1.973817
H 1.613203 -0.686050 -2.447040
H 2.777401 -1.106855 -1.140746
H 2.517825 0.001755 1.189110
H 1.293274 1.257794 1.438162
H 2.557074 2.925515 0.084062
H 6.247874 2.818288 -0.005015
H 4.889009 3.378698 -1.041580
H 4.972438 3.873034 0.696289
H 6.129552 0.648863 0.662705
H 4.783711 0.292711 1.794467
H 4.706656 -0.262814 0.068469
