47

C -1.996465 -2.249519 2.517837
O -1.653425 -1.411739 1.418704
C -2.421993 -1.250423 0.254747
C -3.645624 -1.934656 0.100354
C -4.431682 -1.755302 -1.042269
C -5.751187 -2.458433 -1.170662
C -4.018162 -0.852818 -2.023168
C -2.808784 -0.172174 -1.891431
C -1.968679 -0.376274 -0.772370
C -0.637575 0.399965 -0.658879
O -0.362647 1.085148 -1.862514
C -0.767767 1.466756 0.448559
O 0.413128 2.263528 0.506500
C 0.595502 3.283670 1.442905
C 1.887635 4.026334 1.476144
O -0.304829 3.557497 2.282230
C 0.554252 -0.550428 -0.352467
O 1.788648 0.118315 -0.601504
C 3.032802 -0.454455 -0.327607
O 3.111134 -1.622652 0.144426
C 4.275685 0.361962 -0.544440
C 5.342045 -0.443124 -1.294839
C 4.811947 0.871407 0.795705
H -2.957375 -1.918680 2.965326
H -1.202847 -2.175855 3.289183
H -2.069759 -3.306242 2.184653
H -4.000290 -2.605468 0.871221
H -6.012536 -2.612501 -2.239367
H -5.712701 -3.454802 -0.680922
H -6.543189 -1.848070 -0.688702
H -4.635340 -0.671665 -2.894830
H -2.544276 0.522923 -2.676435
H -0.162442 0.408806 -2.563140
H -1.638134 2.124368 0.229455
H -0.933195 0.991393 1.438601
H 2.497236 3.670339 2.332510
H 1.696371 5.114312 1.587323
H 2.450543 3.853902 0.534649
H 0.546194 -0.880937 0.705970
H 0.494724 -1.450566 -1.003205
H 4.012094 1.244396 -1.168472
H 4.935673 -0.803263 -2.264273
H 6.224643 0.197884 -1.505335
H 5.672807 -1.318564 -0.695297
H 4.035747 1.477041 1.311473
H 5.100563 0.022564 1.452627
H 5.701530 1.516100 0.631027
