50

C -4.297887 0.257133 1.632383
C -3.293939 0.578027 0.562970
C -2.334093 -0.283053 0.149431
C -2.352599 -1.738521 0.606258
N -1.096637 -2.462569 0.286636
C -0.100859 -2.306809 1.380634
C 0.575146 -0.911542 1.350941
C 0.937631 -0.437556 -0.099675
C 0.817747 -1.629373 -0.997926
N 1.899529 -2.041633 -1.581809
C 2.910149 -1.156151 -1.129449
C 4.263638 -1.210435 -1.456092
C 5.127237 -0.272090 -0.866305
C 4.627350 0.683864 0.041443
C 3.259137 0.713861 0.359445
C 2.415324 -0.211868 -0.258525
C -0.538281 -2.238099 -1.096832
C -1.355122 -1.203655 -1.894867
C -1.459184 0.090525 -1.043990
C -0.008105 0.698959 -0.702207
C 0.602097 1.235982 -2.053366
O -0.254644 2.151863 -2.686996
C -0.060179 1.893508 0.262586
O 0.826133 2.791631 0.199568
O -1.022917 1.972146 1.270570
C -1.075191 3.037946 2.210561
H -4.898906 -0.629956 1.341759
H -4.983989 1.118913 1.769599
H -3.779707 0.065087 2.595247
H -3.354202 1.566054 0.113662
H -2.574722 -1.804292 1.693254
H -3.193983 -2.254116 0.095846
H -0.559862 -2.488183 2.377242
H 0.680792 -3.089955 1.264921
H 1.486013 -0.965316 1.987059
H -0.095556 -0.197415 1.860812
H 4.640982 -1.959640 -2.139715
H 6.183436 -0.290787 -1.101351
H 5.302263 1.393201 0.502365
H 2.875888 1.428157 1.074755
H -0.494813 -3.202461 -1.646479
H -2.367072 -1.609798 -2.118154
H -0.894373 -1.009280 -2.886189
H -2.024475 0.822367 -1.662091
H 0.798323 0.409162 -2.763187
H 1.599581 1.706675 -1.894403
H -0.071952 3.044149 -2.293691
H -1.220906 4.003742 1.682144
H -1.928674 2.872382 2.899505
H -0.135566 3.069218 2.801700
