68

C 1.833720 0.611936 -2.782285
C 0.982123 0.221480 -1.613119
C -0.325506 -0.229344 -1.832498
C -1.141256 -0.663546 -0.781779
O -2.397634 -1.168678 -1.165149
C -3.674848 -0.844431 -0.607208
O -3.631905 0.417720 0.042011
C -4.858613 0.658233 0.723280
C -4.708431 1.929965 1.571270
O -4.486053 3.056996 0.764424
C -6.028136 0.781900 -0.284427
O -7.238553 0.965359 0.410953
C -6.103874 -0.483357 -1.167253
O -6.563961 -1.578869 -0.409680
C -4.715083 -0.813142 -1.745067
O -4.364292 0.157663 -2.702215
C -0.638408 -0.627828 0.552317
C -1.389900 -1.182164 1.756333
C -0.799594 -2.528482 2.186110
C -1.412105 -0.185431 2.929916
C 0.689025 -0.185073 0.753600
C 1.515103 0.190184 -0.315152
O 2.859291 0.548719 -0.108583
C 3.742463 -0.121627 0.803962
O 4.677875 0.785083 1.370462
C 5.669175 1.249120 0.462293
C 5.120241 2.324452 -0.501122
O 6.160992 3.105129 -1.030733
C 6.439033 0.079571 -0.202318
O 7.432651 0.532444 -1.089626
C 5.501647 -0.961744 -0.843638
O 4.936143 -0.472593 -2.034346
C 4.392259 -1.357883 0.145266
O 4.920985 -2.188747 1.149136
H 2.454759 1.495372 -2.533327
H 2.491535 -0.233943 -3.061097
H 1.209543 0.875208 -3.665253
H -0.713836 -0.275678 -2.843584
H -3.953264 -1.667491 0.090748
H -5.076013 -0.169217 1.439321
H -5.636362 2.088173 2.163137
H -3.877703 1.800422 2.300615
H -3.521341 3.042938 0.521929
H -5.850033 1.667083 -0.943785
H -7.937693 1.121194 -0.273652
H -6.796375 -0.291926 -2.023972
H -7.552081 -1.606486 -0.502702
H -4.759246 -1.820403 -2.225583
H -3.647836 -0.241389 -3.269452
H -2.437556 -1.365832 1.515586
H 0.239191 -2.408327 2.556765
H -1.417941 -2.981328 2.993172
H -0.784381 -3.228104 1.322484
H -1.644447 0.834597 2.564590
H -2.191512 -0.486020 3.662026
H -0.439579 -0.164456 3.457959
H 1.079175 -0.140781 1.756463
H 3.162003 -0.516010 1.660298
H 6.418060 1.775116 1.093271
H 4.574317 1.865442 -1.346244
H 4.400282 2.979546 0.040174
H 6.402180 3.773132 -0.332509
H 6.973952 -0.446253 0.616993
H 6.995842 0.831380 -1.929268
H 6.120113 -1.861749 -1.076937
H 4.676413 -1.262280 -2.573178
H 3.597956 -1.920843 -0.407799
H 5.047303 -3.084103 0.741272
