48

C -2.189347 2.573331 -2.622122
C -2.265713 1.567135 -1.506057
C -1.100645 0.908690 -1.085761
C -1.136935 -0.037481 -0.042894
O 0.020266 -0.721254 0.370171
C 1.325970 -0.542828 -0.175813
O 1.772974 0.770600 0.121490
C 3.021180 1.023677 -0.501329
C 3.348412 2.517446 -0.353506
O 4.572938 2.827989 -0.962888
C 4.117465 0.124425 0.120466
O 4.266319 0.414906 1.489246
C 3.707255 -1.350329 -0.057827
O 4.625221 -2.214061 0.567276
C 2.271456 -1.585963 0.452062
O 1.862889 -2.882691 0.099869
C -2.362379 -0.316660 0.601665
C -2.428879 -1.356840 1.716315
C -3.260426 -0.885642 2.920345
C -2.908223 -2.717923 1.180370
O -4.202506 -2.634536 0.643649
C -3.531573 0.326415 0.152445
C -3.492160 1.262874 -0.883017
O -4.689000 1.869740 -1.270768
H -2.812418 2.234269 -3.476259
H -2.554007 3.559309 -2.264878
H -1.148509 2.706146 -2.986891
H -0.166869 1.135257 -1.581362
H 1.272714 -0.712771 -1.277196
H 2.956117 0.819266 -1.596661
H 3.400904 2.793204 0.720956
H 2.532257 3.124395 -0.808139
H 4.412100 2.823358 -1.942565
H 5.081437 0.278729 -0.420983
H 4.994780 1.084553 1.568488
H 3.728088 -1.578830 -1.147297
H 4.544394 -2.090280 1.548760
H 2.254239 -1.467143 1.561733
H 1.106144 -3.119107 0.697605
H -1.407345 -1.520961 2.122783
H -4.339996 -0.812036 2.677557
H -2.901325 0.107992 3.263932
H -3.146389 -1.603524 3.760582
H -2.862881 -3.484603 1.988762
H -2.216502 -3.054462 0.378402
H -4.835574 -2.817709 1.385696
H -4.489687 0.099916 0.599772
H -4.746232 2.554010 -2.014084
