49

C 5.138739 0.886432 1.596062
C 4.028083 0.754462 0.591446
C 4.270523 0.112759 -0.562512
C 3.362248 0.003440 -1.765878
C 1.872746 0.425906 -1.630767
C 1.158439 0.088108 -2.958722
C 1.113234 -0.158172 -0.374633
C 1.501580 -1.651228 -0.154965
O -0.286158 -0.067695 -0.671049
C -1.179502 -0.419719 0.380266
O -1.899854 0.756085 0.733064
C -3.056098 0.444353 1.486947
C -3.550273 1.700553 2.225384
O -3.704970 2.784454 1.347129
C -4.132273 -0.196981 0.566910
O -4.965034 0.784309 0.001967
C -3.466641 -1.013447 -0.566829
O -4.325187 -2.058246 -0.948650
C -2.110287 -1.576670 -0.103626
O -1.499212 -2.295258 -1.146855
C 1.448584 0.702636 0.893469
C 2.760554 1.439376 0.872221
O 2.787988 2.652184 1.215509
H 5.840524 1.683471 1.272122
H 5.693393 -0.071495 1.694221
H 4.734845 1.148879 2.597246
H 5.254131 -0.322491 -0.700915
H 3.409479 -1.051219 -2.114854
H 3.825022 0.614660 -2.570937
H 1.845341 1.537489 -1.570679
H 1.736033 0.482508 -3.822331
H 0.154909 0.561920 -3.001339
H 1.045973 -1.009115 -3.083467
H 2.562636 -1.761741 0.141471
H 1.329165 -2.239770 -1.079429
H 0.915395 -2.128410 0.653898
H -0.657377 -0.775843 1.294765
H -2.801870 -0.290728 2.288953
H -4.526866 1.487039 2.710108
H -2.831363 1.963395 3.035506
H -2.803427 3.178561 1.215041
H -4.746128 -0.876822 1.204941
H -5.773473 0.315831 -0.334001
H -3.282485 -0.333444 -1.434348
H -4.110480 -2.281176 -1.891988
H -2.292332 -2.258603 0.762682
H -1.871684 -3.215248 -1.125943
H 0.653697 1.469515 1.022763
H 1.429713 0.075195 1.810624
