47

C -3.062986 1.610762 -2.347401
C -3.456291 1.268051 -0.905069
C -2.354017 0.573278 -0.042639
C -2.952942 0.303724 1.398194
C -3.042416 -1.195866 1.797252
C -1.804983 -2.039835 1.388786
N -1.062957 -1.411782 0.284096
C 0.017899 -2.216774 -0.286129
C 1.045897 -1.333346 -1.023947
C 1.824084 -0.344692 -0.170824
C 1.380735 0.779209 0.576472
N 2.443773 1.519684 0.973994
C 3.537757 0.920061 0.489786
C 4.857856 1.344282 0.638187
C 5.867762 0.579905 0.031071
C 5.539182 -0.577603 -0.704034
C 4.198619 -0.981919 -0.835809
C 3.209604 -0.207646 -0.214917
C -0.003383 1.096536 1.101938
C -1.066798 1.482479 0.029293
C -1.959109 -0.769625 -0.680612
H -2.202594 2.309407 -2.375731
H -2.829472 0.697033 -2.930086
H -3.919105 2.113622 -2.844637
H -4.356511 0.615189 -0.944282
H -3.764706 2.213778 -0.406903
H -2.394963 0.850373 2.185277
H -3.981595 0.718577 1.483967
H -3.939974 -1.629475 1.303698
H -3.207654 -1.280169 2.893175
H -1.128797 -2.129570 2.266471
H -2.132701 -3.063618 1.100662
H 0.550214 -2.767800 0.520735
H -0.403977 -2.966697 -0.991520
H 0.604131 -0.782249 -1.874193
H 1.752042 -2.039953 -1.501900
H 2.422954 2.381964 1.563810
H 5.098598 2.237964 1.199374
H 6.902511 0.882371 0.125980
H 6.324207 -1.159410 -1.169379
H 3.961973 -1.874216 -1.397223
H -0.301153 0.279288 1.780018
H 0.087158 1.965998 1.789469
H -0.572386 1.516490 -0.965671
H -1.392888 2.525989 0.237109
H -2.850609 -1.406913 -0.883190
H -1.481989 -0.606855 -1.662718
