48

C -5.143253 -0.781576 1.686175
O -4.456283 -1.985429 1.359301
C -3.127194 -2.047359 0.910795
C -2.329514 -0.895677 0.766551
C -1.010498 -0.986306 0.278535
C -0.455401 -2.267639 0.063586
C -1.253990 -3.411302 0.193234
C -2.586323 -3.301764 0.605193
O -3.378148 -4.442093 0.731554
C 1.007057 -2.399889 -0.280886
C 1.815791 -1.343593 0.485960
C 1.261703 0.041327 0.158225
C 2.120731 1.127825 -0.044109
C 1.597139 2.399652 -0.279396
C 0.212761 2.596236 -0.418611
O -0.305379 3.875313 -0.678669
C 0.469882 5.062107 -0.816991
C -0.663783 1.485686 -0.301992
O -2.039810 1.573133 -0.592489
C -2.746381 2.709661 -1.077633
C -0.140143 0.220406 0.075443
C 3.601655 0.915358 -0.026275
C 3.910961 -0.470516 -0.590271
N 3.266476 -1.540266 0.198202
C 4.033277 -1.865231 1.413695
H -5.178240 -0.109411 0.802646
H -6.182178 -1.027520 1.986944
H -4.639388 -0.272774 2.534897
H -2.725700 0.058907 1.074250
H -0.835309 -4.390412 -0.005444
H -3.015838 -5.365623 0.524870
H 1.381183 -3.410870 -0.006217
H 1.140064 -2.262617 -1.376210
H 1.610997 -1.502728 1.571613
H 2.282634 3.228807 -0.391631
H 1.169984 4.963747 -1.673292
H 1.031943 5.263024 0.119424
H -0.209755 5.916654 -1.012195
H -2.749903 3.515231 -0.314072
H -2.301643 3.062321 -2.032069
H -3.798699 2.418555 -1.272582
H 4.112840 1.675483 -0.656893
H 3.981381 1.015117 1.011884
H 5.012882 -0.616777 -0.633432
H 3.546955 -0.530370 -1.639807
H 3.620181 -2.782639 1.885343
H 3.990411 -1.033727 2.149412
H 5.093867 -2.080440 1.162156
