44

C -3.729616 -2.034992 0.162433
C -2.599572 -1.222542 -0.486658
C -1.550285 -0.562929 0.479273
C -2.257592 0.234275 1.614205
C -2.995778 1.472539 1.092333
C -2.123644 2.322765 0.147568
N -0.722342 1.855463 0.123503
C 0.091168 2.764816 -0.732351
C 1.595691 2.409866 -0.682274
C 1.779695 0.929334 -0.776984
C 0.763058 0.044600 -0.514350
N 1.218495 -1.205750 -0.351131
C 2.560217 -1.130273 -0.492927
C 3.512872 -2.130994 -0.283316
C 4.871445 -1.778328 -0.381357
C 5.250423 -0.444666 -0.650812
C 4.275456 0.553501 -0.824575
C 2.936981 0.173666 -0.752303
C 0.417607 -2.191203 0.288009
O 0.683729 -3.418692 0.192642
C -0.694078 -1.696071 1.163586
C -0.670231 0.456422 -0.384870
H -4.405872 -1.380297 0.748834
H -4.340426 -2.501866 -0.638889
H -3.348575 -2.851311 0.804581
H -3.091680 -0.436079 -1.099892
H -2.062848 -1.885907 -1.199968
H -2.952958 -0.406836 2.194994
H -1.495013 0.589456 2.343464
H -3.310208 2.087746 1.963753
H -3.923332 1.161500 0.565355
H -2.162451 3.378971 0.495936
H -2.558820 2.297608 -0.878167
H -0.258493 2.720427 -1.789358
H -0.019217 3.816345 -0.386443
H 2.020716 2.758578 0.283310
H 2.134654 2.912189 -1.513375
H 3.227486 -3.147000 -0.048876
H 5.633088 -2.532860 -0.233694
H 6.299593 -0.185491 -0.707665
H 4.557970 1.583658 -0.999216
H -1.314235 -2.546608 1.505989
H -0.202749 -1.294823 2.076484
H -1.040330 0.461793 -1.436803
