49

C -4.612839 -0.776734 1.388661
C -3.592462 -1.342222 0.391153
C -2.329623 -1.904567 1.065264
O -2.426261 -2.687595 1.997519
C -0.940717 -1.519603 0.533228
C -1.079381 -0.496016 -0.651148
O 0.098105 -0.155682 -1.373631
C 1.137947 0.303669 -0.530103
O 1.808699 -0.818198 0.022066
C 2.806118 -0.410296 0.943531
C 3.338371 -1.656539 1.668446
O 3.963356 -2.538110 0.773421
C 3.933936 0.354531 0.205391
O 4.912381 0.793396 1.114716
C 3.340051 1.568407 -0.533493
O 2.933862 2.547666 0.392220
C 2.135906 1.115082 -1.385884
O 1.512262 2.207245 -2.014814
C -2.154138 -1.071561 -1.590218
C -3.191369 -0.325352 -0.730509
C -2.060704 0.661651 -0.308515
C -2.052391 1.222889 1.137494
C -1.984575 1.858687 -1.291881
H -4.164791 -0.069349 2.109314
H -5.434295 -0.264327 0.844570
H -5.057750 -1.609019 1.974655
H -4.102661 -2.195711 -0.109398
H -0.421559 -2.434817 0.175890
H -0.346540 -1.084808 1.363879
H 0.732928 0.965052 0.271878
H 2.362971 0.246622 1.728881
H 2.499827 -2.169400 2.193416
H 4.071280 -1.356810 2.446871
H 3.240063 -3.033909 0.308152
H 4.391402 -0.315785 -0.562184
H 5.607645 0.086333 1.160923
H 4.111962 1.990572 -1.220012
H 3.734589 3.092849 0.609352
H 2.518989 0.445303 -2.187893
H 1.165728 2.809178 -1.307067
H -2.094173 -0.666986 -2.624677
H -2.230186 -2.183504 -1.615607
H -4.039418 0.105288 -1.307033
H -1.182765 1.897913 1.278193
H -2.970215 1.824855 1.305527
H -1.982077 0.464454 1.935603
H -2.908024 2.470544 -1.208441
H -1.122016 2.508061 -1.044017
H -1.877444 1.546653 -2.350544
