55

C -5.270215 -1.284509 -1.668007
C -3.881689 -1.629214 -1.127447
C -3.084727 -0.369479 -0.709307
C -3.619895 0.261955 0.619434
C -2.548982 0.176339 1.736969
C -2.090032 -1.291007 1.837548
N -1.498227 -1.724433 0.544988
C -0.267569 -2.526958 0.612538
C 0.920205 -1.809122 1.259527
C 1.437658 -0.659423 0.449721
C 0.717680 0.424974 -0.079605
N 1.590251 1.382182 -0.499861
C 2.823501 0.914595 -0.263924
C 4.028102 1.570868 -0.504590
C 5.218675 0.925535 -0.130274
C 5.182702 -0.353710 0.488287
O 6.347790 -1.027070 0.883712
C 7.666586 -0.518724 0.712261
C 3.941951 -0.978135 0.721986
C 2.776128 -0.318219 0.321284
C -0.803734 0.615715 -0.096427
C -1.109399 1.699198 -1.134562
O -0.840627 1.479002 -2.349487
O -1.674342 2.924634 -0.763369
C -1.985353 3.943557 -1.705177
C -1.313981 1.020027 1.336693
C -1.563967 -0.698748 -0.525553
H -5.881370 -0.772705 -0.896245
H -5.792722 -2.217702 -1.966403
H -5.185200 -0.628481 -2.560274
H -3.329269 -2.165352 -1.929761
H -3.989224 -2.327192 -0.269287
H -3.207802 0.365898 -1.533459
H -3.884515 1.328165 0.446704
H -4.543615 -0.245532 0.971888
H -2.964341 0.524815 2.707565
H -1.399611 -1.411846 2.694570
H -2.966801 -1.936118 2.060535
H -0.481888 -3.445088 1.201398
H 0.016527 -2.870990 -0.406270
H 1.721769 -2.568223 1.367722
H 0.700740 -1.456182 2.284537
H 1.368781 2.324460 -0.892234
H 4.047894 2.552283 -0.960767
H 6.157953 1.427799 -0.316241
H 7.877404 -0.360044 -0.366446
H 8.393677 -1.255010 1.111724
H 7.783668 0.434784 1.269340
H 3.905745 -1.947168 1.200527
H -1.062755 4.269998 -2.230232
H -2.724481 3.565440 -2.442886
H -2.422133 4.812077 -1.171132
H -0.519525 0.854255 2.098461
H -1.566945 2.095522 1.426513
H -1.150451 -1.097694 -1.479494
