43

C -3.860114 1.887472 -0.649006
C -2.653230 1.057769 -1.108535
C -1.610900 0.672210 -0.002391
C -0.976610 1.977242 0.508615
C 0.335205 2.236932 0.485771
N 1.246143 1.246386 0.021633
C 0.849553 0.053436 -0.438977
C 1.896775 -0.837536 -0.523491
C 3.007416 -0.130975 -0.099791
C 4.317223 -0.544728 0.134255
C 5.214011 0.392686 0.677319
C 4.779784 1.697666 0.999721
C 3.442891 2.080408 0.785630
C 2.577033 1.141471 0.220006
C 1.691626 -2.321997 -0.610284
C 0.199010 -2.661849 -0.859248
N -0.695169 -1.735238 -0.114931
C -2.094198 -2.187234 -0.157587
C -2.955950 -1.360462 0.816159
C -2.296281 -0.023060 1.203572
C -0.568177 -0.349089 -0.642743
H -3.548679 2.845498 -0.188485
H -4.487098 2.130431 -1.532745
H -4.493969 1.316436 0.059008
H -2.130767 1.632112 -1.905750
H -3.051766 0.143779 -1.596626
H -1.617709 2.728348 0.950748
H 0.703348 3.172413 0.887021
H 4.634924 -1.555089 -0.088908
H 6.241232 0.107237 0.863035
H 5.477480 2.404334 1.429880
H 3.103638 3.070444 1.058941
H 2.321631 -2.743054 -1.422103
H 2.007070 -2.775558 0.353985
H -0.015737 -2.615912 -1.951097
H 0.028888 -3.710621 -0.529994
H -2.162906 -3.256717 0.141339
H -2.495377 -2.108651 -1.192923
H -3.132052 -1.945618 1.745161
H -3.949722 -1.171079 0.356327
H -3.046426 0.637860 1.687270
H -1.524144 -0.228908 1.979210
H -0.707897 -0.369195 -1.748995
