72

C 8.114597 -0.575438 2.655128
O 6.810380 -0.636523 2.090447
C 6.394460 0.207663 1.055069
O 7.184092 1.079942 0.597073
C 5.016674 0.082400 0.519003
C 4.593310 0.905794 -0.455123
O 3.261388 0.898489 -0.865637
C 2.245897 0.396548 -0.004369
O 1.006386 0.353783 -0.685076
C 0.453173 1.650750 -0.841187
O -0.592138 1.809509 0.118032
C -1.817092 2.295910 -0.406781
C -2.772282 2.623515 0.758364
O -2.891262 1.541642 1.665712
C -3.662122 0.474590 1.134893
O -2.781392 -0.590609 0.815368
C -3.428978 -1.645084 0.107202
C -3.355628 -1.393049 -1.408566
O -3.716159 -2.547289 -2.119868
C -4.883250 -1.925172 0.596668
O -5.216562 -3.283826 0.446831
C -5.030467 -1.473298 2.064545
O -6.308539 -1.765818 2.578284
C -4.683428 0.028579 2.211714
O -5.844910 0.813167 2.109199
C -1.608530 3.529024 -1.321502
O -1.122649 4.630714 -0.587635
C -0.688458 3.187167 -2.526404
O 0.241038 4.223046 -2.738649
C 0.051266 1.844832 -2.328037
O -0.768601 0.787709 -2.763324
C 2.648771 -0.997757 0.507523
C 2.652413 -2.088512 -0.530023
C 1.501301 -2.431103 -1.437289
O 0.329065 -2.557597 -0.683098
C 3.733017 -2.850088 -0.429791
C 4.644916 -2.401904 0.652980
C 4.102912 -1.018625 1.064532
H 8.194661 -1.321385 3.473986
H 8.875542 -0.806801 1.879979
H 8.300882 0.437729 3.073497
H 5.271376 1.602521 -0.931113
H 2.176188 1.054262 0.896321
H 1.196315 2.460913 -0.637813
H -2.305858 1.495824 -1.001824
H -3.768657 2.950306 0.379780
H -2.361084 3.483194 1.329351
H -4.239286 0.773210 0.223600
H -2.822833 -2.556429 0.307996
H -2.309690 -1.135593 -1.676002
H -3.994722 -0.530251 -1.705634
H -4.704381 -2.531047 -2.215956
H -5.597776 -1.331671 -0.017176
H -4.643957 -3.807410 1.066289
H -4.293934 -2.048687 2.668243
H -6.983343 -1.421818 1.937928
H -4.239300 0.166619 3.225593
H -5.604585 1.723922 2.426815
H -2.602864 3.821332 -1.726927
H -0.252353 4.370494 -0.185737
H -1.335437 3.096743 -3.433539
H 0.557396 4.142625 -3.677272
H 0.981641 1.859690 -2.945640
H -0.171096 0.039552 -3.021652
H 1.942077 -1.298389 1.314346
H 1.390099 -1.633066 -2.201405
H 1.697498 -3.386740 -1.973791
H -0.406458 -2.680083 -1.337004
H 3.899013 -3.747642 -1.017216
H 4.575715 -3.113260 1.504134
H 5.691711 -2.379662 0.279339
H 4.074891 -0.932085 2.173809
