48

C 0.187873 -2.538633 -0.139186
C 0.870831 -1.397386 0.049386
C 0.141786 -0.186495 0.581148
O -0.796313 0.244649 -0.382854
C -1.584295 1.304805 0.136308
O -2.526206 0.831860 1.089634
C -3.426062 -0.107327 0.517656
C -4.317618 -0.660416 1.635119
O -3.521877 -1.274138 2.611273
C -4.280623 0.554329 -0.588236
O -5.127199 -0.405329 -1.168951
C -3.362531 1.151591 -1.667581
O -4.133166 1.902194 -2.570362
C -2.302342 2.052902 -1.005433
O -1.379408 2.541966 -1.947913
C 2.367650 -1.344770 -0.223914
C 3.153102 -1.268898 1.108400
C 4.592776 -0.916517 0.853968
C 4.888782 0.079207 0.002434
C 6.322608 0.418108 -0.296205
C 3.752851 0.804499 -0.681036
C 2.730687 -0.205413 -1.232489
H 0.678784 -3.436382 -0.501760
H -0.876209 -2.590707 0.071105
H 0.869796 0.628074 0.790802
H -0.356771 -0.467869 1.537013
H -0.938527 2.062718 0.639062
H -2.872076 -0.973147 0.087187
H -4.899758 0.169853 2.095333
H -5.027821 -1.409045 1.217924
H -4.146243 -1.602367 3.309411
H -4.885927 1.371804 -0.127148
H -5.871853 0.090022 -1.599883
H -2.859723 0.311418 -2.204402
H -3.594943 1.995683 -3.399321
H -2.823235 2.929660 -0.559825
H -0.963799 1.762951 -2.401617
H 2.680287 -2.299060 -0.707814
H 3.095232 -2.242817 1.640838
H 2.721986 -0.490531 1.773866
H 5.380891 -1.493221 1.330341
H 6.834621 -0.466148 -0.731116
H 6.395090 1.258301 -1.017827
H 6.840083 0.715041 0.640377
H 4.124394 1.444702 -1.509563
H 3.251468 1.464495 0.059637
H 3.164167 -0.665282 -2.148386
H 1.828783 0.351064 -1.568610
