47

C 4.872238 1.003451 -1.097745
C 3.618949 1.386380 -0.316259
C 2.606999 0.269700 -0.332249
C 2.802921 -0.834707 0.411153
N 1.791835 -1.861951 0.501034
C 1.356623 -2.221264 1.837858
C 0.045397 -1.469687 2.018865
C -0.472211 -1.208667 0.580084
C -1.894565 -1.668858 0.448668
C -2.404351 -2.968449 0.457192
C -3.796978 -3.139541 0.440844
C -4.651851 -2.020496 0.435145
C -4.123452 -0.718943 0.449498
C -2.731647 -0.565360 0.477900
N -1.972105 0.643881 0.412781
C -0.675788 0.270309 0.321859
C 0.227996 1.074009 -0.385234
C -0.137486 2.405004 -0.633260
C -1.434929 2.864481 -0.315117
C -1.791433 4.281888 -0.579410
O -2.943881 4.718971 -0.315106
O -0.845017 5.151665 -1.115673
C -2.384047 1.919502 0.152222
O -3.592367 2.241632 0.307176
C 1.349918 0.409270 -1.162346
C 0.873872 -0.984585 -1.615355
C 0.599851 -1.824216 -0.351988
H 5.584894 1.854868 -1.096998
H 4.608985 0.760219 -2.149448
H 5.369198 0.126143 -0.631799
H 3.890973 1.634107 0.732806
H 3.183513 2.302328 -0.771203
H 3.687375 -0.913200 1.032724
H 2.100312 -1.943362 2.617901
H 1.177132 -3.318244 1.883862
H -0.655611 -2.077677 2.633291
H 0.240487 -0.515634 2.558127
H -1.743169 -3.824582 0.487015
H -4.216195 -4.137241 0.440475
H -5.724426 -2.164471 0.419747
H -4.793132 0.127639 0.438570
H 0.561097 3.054007 -1.146818
H -1.073266 6.121944 -1.296879
H 1.578525 1.000462 -2.076986
H -0.049371 -0.904150 -2.231065
H 1.657826 -1.475690 -2.233124
H 0.320363 -2.860887 -0.642737
