26

C -2.455381 0.748026 0.006166
C -1.073736 0.149781 0.341372
O -0.636221 0.630449 1.592269
C -1.106685 -1.399704 0.344670
C 0.054556 -1.879449 -0.534693
C 0.956422 -0.663940 -0.745186
C 2.018537 -0.578703 0.378819
C 2.483712 0.820164 0.640101
O 3.584030 1.010848 1.221147
O 1.650470 1.906855 0.382377
C 0.643992 1.876917 -0.623315
C -0.035867 0.500143 -0.744390
H -2.807200 0.401885 -0.989531
H -3.203496 0.436702 0.766142
H -2.403839 1.857128 0.000042
H -1.308825 0.363457 2.272575
H -2.064307 -1.798809 -0.057402
H -0.982528 -1.798842 1.375371
H 0.593351 -2.735901 -0.072248
H -0.343032 -2.212330 -1.519401
H 1.472201 -0.724699 -1.729941
H 1.609656 -0.969170 1.336278
H 2.888175 -1.214596 0.104666
H 1.121774 2.121622 -1.596584
H -0.107986 2.665695 -0.413555
H -0.547773 0.486468 -1.735750
