76

C 0.014510 -0.741026 3.521620
C 0.352962 -1.483793 2.465748
C 0.034131 -1.048340 1.046368
C -1.471227 -1.217913 0.748347
O -1.773307 -0.572058 -0.480645
C -2.914656 0.265391 -0.391775
O -3.392343 0.473965 -1.710121
C -4.599460 1.216665 -1.698411
C -5.198537 1.204100 -3.115956
O -6.376924 1.961157 -3.182499
C -4.336336 2.654625 -1.191437
O -3.450334 3.320992 -2.054709
C -3.721390 2.596221 0.218067
O -4.690126 2.177573 1.143784
C -2.529085 1.620785 0.255551
O -1.433147 2.170582 -0.426844
O -1.803754 -2.602479 0.641110
C -0.902288 -3.587549 0.221365
C 0.391216 -3.313200 -0.018250
C 1.264880 -4.442394 -0.404941
O 2.394788 -4.591067 0.134324
O 0.782612 -5.410935 -1.291130
C 1.525435 -6.572224 -1.637186
C 0.858925 -1.849908 -0.005501
C 2.401811 -1.667573 0.147234
C 2.987816 -0.264084 -0.199737
C 2.670035 0.818692 0.827784
C 2.967534 0.601328 2.185467
C 2.657206 1.555624 3.160014
O 2.950262 1.247064 4.490690
C 2.069555 2.779586 2.772800
O 1.720946 3.773735 3.689239
C 1.829368 3.026786 1.418993
C 2.123502 2.063408 0.443735
C 1.929850 2.408011 -1.011322
O 3.064680 3.064767 -1.519797
C 1.610172 1.155772 -1.824521
N 2.624916 0.122703 -1.582183
C 3.151429 -0.612182 -2.704501
C 4.574513 -1.077717 -2.730426
O 2.406980 -0.869344 -3.688419
H 0.275908 -1.067795 4.521903
H -0.528312 0.192579 3.400747
H 0.907963 -2.402668 2.638464
H 0.256713 0.030948 0.951636
H -2.050389 -0.807650 1.607940
H -3.713976 -0.234074 0.211183
H -5.349827 0.727652 -1.033462
H -5.412488 0.154179 -3.419998
H -4.465570 1.616750 -3.842824
H -7.036611 1.522147 -2.586341
H -5.303069 3.209949 -1.123802
H -4.000761 3.850482 -2.689503
H -3.358561 3.611694 0.503867
H -5.248598 2.970402 1.357690
H -2.252184 1.450329 1.320675
H -1.033485 2.849807 0.175753
H -1.271895 -4.602025 0.141044
H 2.486395 -6.281486 -2.110226
H 1.718997 -7.180994 -0.727352
H 0.942561 -7.182293 -2.358071
H 0.597026 -1.461458 -1.011889
H 2.730929 -1.996692 1.153130
H 2.896920 -2.355943 -0.563401
H 4.096219 -0.360458 -0.156907
H 3.437576 -0.321695 2.498736
H 2.764673 1.863831 5.268371
H 1.848116 3.690349 4.688373
H 1.409970 3.981839 1.125289
H 1.068695 3.101724 -1.116791
H 3.840828 2.451534 -1.433631
H 0.608694 0.771948 -1.540629
H 1.566358 1.434887 -2.900505
H 4.724960 -1.889484 -1.994202
H 5.245977 -0.226079 -2.496564
H 4.833128 -1.467983 -3.736962
