78

C -4.400680 -3.626193 -1.064254
C -5.149974 -2.426399 -0.547904
C -6.467543 -2.560033 -0.276101
C -7.367152 -1.506245 0.319900
C -8.016632 -0.632354 -0.771525
O -8.858585 -1.428240 -1.564366
C -8.831615 0.501124 -0.150829
C -9.962345 0.165321 0.793372
C -8.653399 1.805268 -0.471346
C -7.667742 2.320009 -1.483156
O -6.364376 2.174367 -0.996241
C -4.357388 -1.199604 -0.274595
O -4.916076 -0.077568 -0.140965
O -2.963953 -1.290985 -0.194562
C -2.134892 -0.165848 0.074983
C -0.698201 -0.595779 0.190033
C -0.237156 -1.437617 1.142909
C -1.160853 -2.021063 2.190381
C 1.255239 -1.728299 1.223899
O 1.465523 -3.100584 1.429940
C 1.905371 -0.942052 2.376059
C 1.841899 0.546003 2.142344
C 2.772790 1.285959 1.503604
C 2.580335 2.777395 1.436923
C 4.044284 0.737481 0.970085
O 4.123821 -0.456419 0.572900
O 5.158725 1.578765 0.881870
C 6.437853 1.135546 0.433691
O 6.338395 0.728243 -0.924895
C 7.563601 0.208412 -1.430446
C 7.919482 -1.165592 -0.815900
O 8.806728 -1.863805 -1.648587
C 8.712988 1.249792 -1.349347
O 8.469513 2.284513 -2.269612
C 8.819532 1.832448 0.076200
O 9.775343 2.864489 0.151469
C 7.441474 2.286917 0.596986
O 6.979357 3.410672 -0.110828
H -5.077607 -4.354073 -1.562054
H -3.886869 -4.129383 -0.217861
H -3.644046 -3.312548 -1.814229
H -6.944613 -3.512413 -0.479768
H -6.828498 -0.890497 1.070396
H -8.160954 -2.038780 0.885011
H -7.195492 -0.240686 -1.408164
H -9.060344 -0.902550 -2.383350
H -10.900313 0.654926 0.453041
H -10.157506 -0.926665 0.830236
H -9.714905 0.520901 1.815196
H -9.300257 2.549078 -0.008480
H -7.871914 3.398739 -1.662639
H -7.792892 1.780120 -2.448561
H -5.766909 2.519035 -1.707932
H -2.230101 0.566401 -0.753963
H -2.453679 0.329263 1.016564
H 0.000455 -0.165878 -0.522065
H -1.898683 -2.696841 1.709976
H -0.596160 -2.616951 2.936817
H -1.687869 -1.210065 2.731835
H 1.760597 -1.432711 0.274515
H 1.247307 -3.554430 0.573175
H 1.369249 -1.168272 3.323956
H 2.951768 -1.273669 2.541096
H 0.965912 1.044685 2.543483
H 1.502553 3.048741 1.433230
H 3.027816 3.183080 0.505340
H 3.073429 3.255373 2.309769
H 6.742932 0.288652 1.086198
H 7.386695 0.010597 -2.511044
H 6.989682 -1.767602 -0.730797
H 8.342172 -1.067817 0.209728
H 9.725499 -1.616190 -1.367911
H 9.686690 0.765499 -1.597593
H 8.699477 1.931934 -3.169064
H 9.179969 1.024037 0.748413
H 9.487731 3.602370 -0.445854
H 7.528044 2.522946 1.685652
H 7.297943 4.213599 0.378366
