65

C -2.735777 -3.975264 -1.203234
C -2.981043 -2.741245 -1.664176
C -2.660200 -1.441731 -0.919151
C -2.216039 -1.641836 0.558345
C -3.939866 -0.559881 -0.934364
C -5.179432 -1.156366 -0.223255
C -5.355044 -0.603184 1.171355
C -5.997801 0.543897 1.460913
C -6.691004 1.414517 0.443405
O -5.770358 1.974173 -0.451209
O -1.684563 -0.700045 -1.650487
C -0.401721 -1.307096 -1.719536
O 0.435687 -0.683858 -0.746347
C 1.787230 -0.491325 -1.149841
C 2.647659 -0.253808 0.095331
O 2.177565 0.898323 0.767832
C 3.102246 1.312607 1.758141
O 2.400877 1.984818 2.781482
C 3.061230 3.203799 3.039972
C 4.416395 3.207844 2.335871
O 4.729080 4.508370 1.894206
C 5.533825 2.674348 3.265443
O 5.758434 3.575582 4.315505
C 4.154000 2.260442 1.176734
O 3.615573 2.956015 0.076827
C 2.333415 -1.666215 -1.998354
O 2.214860 -2.872238 -1.282675
C 1.536724 -1.774344 -3.318954
O 2.229913 -1.100521 -4.338469
C 0.115918 -1.172248 -3.173328
O -0.773242 -1.767084 -4.085758
H -2.980998 -4.835799 -1.816912
H -2.289914 -4.155453 -0.233070
H -3.402332 -2.653922 -2.661908
H -2.974643 -2.215323 1.128421
H -1.264761 -2.205180 0.639432
H -2.070040 -0.658365 1.052448
H -4.217952 -0.363662 -1.994943
H -3.691605 0.436896 -0.507492
H -5.105700 -2.262675 -0.155610
H -6.088791 -0.956924 -0.828903
H -4.940494 -1.174796 1.996307
H -6.062132 0.842893 2.502663
H -7.437301 0.817337 -0.119796
H -7.248568 2.223127 0.966189
H -5.262068 2.659783 0.056272
H -0.429639 -2.396626 -1.492150
H 1.848500 0.439885 -1.758203
H 2.570730 -1.135568 0.770915
H 3.708207 -0.128879 -0.226159
H 3.615677 0.443553 2.238328
H 2.426216 4.030623 2.651864
H 3.160593 3.347647 4.137479
H 5.582975 4.453047 1.389609
H 5.250827 1.680070 3.680653
H 6.474427 2.551270 2.681807
H 6.477603 3.176961 4.871565
H 5.066440 1.693065 0.872201
H 4.382570 3.252245 -0.480379
H 3.406150 -1.478254 -2.247068
H 3.053684 -2.988573 -0.762156
H 1.464118 -2.854894 -3.588908
H 1.819260 -1.379683 -5.197764
H 0.159832 -0.086247 -3.412477
H -0.865411 -2.724025 -3.835793
