66

C -6.508587 -2.046352 2.837538
O -5.800947 -0.891982 2.401731
C -4.804012 -0.944569 1.421050
O -4.516338 -2.044584 0.871559
C -4.134454 0.343455 0.988959
C -4.628928 0.930774 -0.350413
C -4.837184 -0.105610 -1.493206
C -6.266897 -0.659039 -1.547506
O -7.162392 0.362947 -1.894145
C -3.516828 1.916129 -0.709955
C -2.213769 1.251641 -0.275225
O -1.275545 2.261624 0.062860
C 0.070916 1.857479 -0.134302
O 0.605139 1.457322 1.121440
C 1.981360 1.092796 1.058691
C 2.207470 -0.260875 0.353636
O 3.557626 -0.680575 0.527298
C 4.039594 -1.897061 0.033215
O 3.246132 -2.718299 -0.504941
C 5.481373 -2.213508 0.133645
C 6.373964 -1.285185 0.699334
C 7.740966 -1.571457 0.772154
C 8.234086 -2.786231 0.286017
O 9.599035 -3.055166 0.361835
C 7.351974 -3.719751 -0.272972
C 5.984263 -3.436563 -0.348788
C 2.866888 2.237167 0.504584
O 2.893070 3.298850 1.426291
C 2.324822 2.742892 -0.837347
O 3.040841 3.888411 -1.225810
C 0.829658 3.070303 -0.701719
O 0.294292 3.395078 -1.959144
C -2.579875 0.380732 0.947309
C -1.878850 -0.984648 0.881779
H -7.280181 -1.744636 3.576619
H -7.009233 -2.534959 1.973015
H -5.806741 -2.761197 3.318914
H -4.426259 1.093251 1.761381
H -5.571348 1.502153 -0.190576
H -4.640261 0.364593 -2.481478
H -4.112644 -0.941616 -1.402740
H -6.561193 -1.101977 -0.571777
H -6.306561 -1.462524 -2.318154
H -8.056158 -0.063425 -1.956956
H -3.670556 2.855400 -0.130911
H -3.497259 2.187506 -1.787887
H -1.894771 0.620776 -1.139165
H 0.162148 1.031485 -0.875058
H 2.303662 0.928276 2.110527
H 1.535113 -1.019686 0.804818
H 1.992527 -0.195915 -0.731601
H 6.019961 -0.335235 1.079933
H 8.417864 -0.846328 1.206131
H 9.987083 -3.924839 0.015711
H 7.723934 -4.664108 -0.651148
H 5.323818 -4.172490 -0.790456
H 3.907498 1.869908 0.340602
H 3.522881 3.038949 2.147203
H 2.459858 1.940262 -1.600725
H 2.969026 3.955342 -2.213504
H 0.698891 3.927338 0.001920
H 0.498164 4.353164 -2.121598
H -2.221373 0.884823 1.873899
H -2.175810 -1.548512 -0.026459
H -0.782751 -0.840420 0.852306
H -2.108193 -1.581505 1.789700
