51

C 0.024736 -2.439841 2.256618
C 0.758684 -1.759894 1.093389
C -0.084867 -1.463101 -0.203657
C -0.802703 -2.762038 -0.680475
C -2.242506 -2.835078 -0.191880
C -3.038857 -1.695549 -0.812189
N -2.386616 -0.375655 -0.662863
C -2.235857 0.363850 -1.915753
C -1.250661 1.491483 -1.644986
C -0.564730 1.128004 -0.315497
C 0.944568 1.202296 -0.424640
C 1.671282 0.207425 -0.956909
C 3.140994 0.280896 -1.120767
O 3.712903 1.396988 -1.259093
O 3.890858 -0.898789 -1.164215
C 5.303349 -0.905364 -1.330904
C 0.929393 -1.055156 -1.324690
N 1.482085 2.290577 0.334022
C 0.377831 2.828412 1.038258
C 0.425539 3.853390 1.982753
C -0.771076 4.240909 2.607324
C -1.982518 3.598922 2.283552
C -2.004736 2.562913 1.335652
C -0.802553 2.186715 0.729016
C -1.111374 -0.272590 0.073660
H -0.293559 -3.466609 1.984654
H -0.849871 -1.851740 2.596558
H 0.720399 -2.528843 3.117630
H 1.186039 -0.812707 1.487498
H 1.622318 -2.410900 0.831870
H -0.828884 -2.818082 -1.792500
H -0.249914 -3.669498 -0.354392
H -2.689327 -3.805432 -0.499220
H -2.302234 -2.772805 0.912827
H -4.032004 -1.651454 -0.317287
H -3.231649 -1.939129 -1.881896
H -1.837816 -0.295030 -2.719619
H -3.219156 0.771496 -2.235502
H -1.796867 2.459301 -1.581040
H -0.526553 1.568535 -2.486644
H 5.574254 -0.431315 -2.298023
H 5.787184 -0.357055 -0.495001
H 5.665324 -1.953890 -1.330518
H 0.402534 -0.877857 -2.285435
H 1.638011 -1.891439 -1.509795
H 2.482676 2.483350 0.558190
H 1.360959 4.338823 2.228754
H -0.762154 5.036000 3.341448
H -2.900622 3.904883 2.767921
H -2.932529 2.066901 1.081836
H -1.369726 -0.265226 1.151960
