97

C -2.000692 -0.308223 -1.471219
C -3.222569 0.182587 -0.668810
C -2.852345 0.662176 0.747047
O -1.709831 -0.017914 1.271958
C -1.782082 -1.286819 1.857835
O -2.902237 -1.776915 2.173867
C -0.546709 -2.061948 2.088090
C -0.550172 -3.173571 2.946579
C 0.617709 -3.911884 3.151757
C 1.793772 -3.562417 2.485265
C 1.810763 -2.480239 1.599020
O 3.003037 -2.198812 0.916622
C 3.085794 -1.733019 -0.403373
O 2.049689 -1.645499 -1.119349
C 4.411269 -1.434178 -0.986659
C 4.557504 -1.253948 -2.372059
C 5.823543 -1.056436 -2.928402
C 6.951626 -1.027004 -2.111767
C 6.823814 -1.165798 -0.726768
O 7.978259 -1.108766 0.065363
C 8.048680 -0.393376 1.301085
O 7.697600 0.969797 1.091412
C 8.752739 1.803823 0.604585
C 8.156310 2.770334 -0.434069
O 7.094890 3.500332 0.123030
C 9.968624 1.049545 -0.000268
O 10.961483 1.971441 -0.373265
C 10.539183 0.015298 1.005317
O 11.567251 0.585715 1.778754
C 9.438825 -0.554201 1.936053
O 9.436846 0.105664 3.180017
C 5.550815 -1.373531 -0.166387
C 0.643549 -1.711992 1.425322
C -2.597393 2.169411 0.640000
C -3.059377 2.604573 -0.760111
C -3.805358 3.931956 -0.757970
C -3.073126 5.173547 -0.422318
O -1.839557 5.129269 -0.167858
O -3.735178 6.398372 -0.379459
C -5.104368 3.984905 -1.093441
O -5.821840 2.823165 -1.388240
C -5.355988 1.535689 -1.002148
O -6.071877 0.556301 -1.737492
C -6.826524 -0.288448 -0.890201
O -7.966776 0.414477 -0.427974
C -8.871248 -0.372442 0.349310
C -10.279958 -0.202593 -0.242766
O -10.597626 1.161175 -0.321389
C -8.482301 -1.877838 0.518274
O -9.527435 -2.617437 1.097510
C -8.086302 -2.507465 -0.832201
O -7.348255 -3.682111 -0.606039
C -7.243875 -1.532440 -1.695973
O -7.977938 -1.126106 -2.824462
C -3.852564 1.416892 -1.334723
H -1.193347 0.457246 -1.483770
H -2.301450 -0.537749 -2.516099
H -1.597070 -1.240776 -1.023381
H -3.942677 -0.660268 -0.606942
H -3.724531 0.508705 1.423782
H -1.455245 -3.473767 3.460933
H 0.608145 -4.766854 3.816397
H 2.688005 -4.153803 2.632396
H 3.699604 -1.291774 -3.029933
H 5.924605 -0.925186 -3.998349
H 7.930129 -0.877745 -2.550914
H 7.315537 -0.829927 2.013522
H 9.129247 2.413155 1.456236
H 8.934831 3.470146 -0.813397
H 7.775059 2.190147 -1.297963
H 7.505982 4.171142 0.729611
H 9.617680 0.509941 -0.911875
H 11.572926 1.495849 -0.998357
H 10.952969 -0.837082 0.410977
H 12.415542 0.464415 1.274259
H 9.623137 -1.645313 2.087026
H 10.097369 -0.364619 3.757819
H 5.451330 -1.518395 0.900715
H 0.657134 -0.849780 0.775364
H -1.516112 2.399526 0.765802
H -3.162561 2.702681 1.437524
H -2.156149 2.732650 -1.398592
H -3.237142 7.248734 -0.149446
H -5.624535 4.931076 -1.156076
H -5.493516 1.467294 0.105479
H -6.203168 -0.626094 -0.028593
H -8.895308 0.068856 1.367684
H -10.317133 -0.648675 -1.259282
H -11.027734 -0.714162 0.402474
H -11.489472 1.210821 -0.758905
H -7.598604 -1.934893 1.197490
H -9.596907 -2.318765 2.042698
H -9.014465 -2.768764 -1.392551
H -7.989112 -4.385160 -0.326102
H -6.307375 -2.036541 -2.030450
H -7.984869 -1.898846 -3.450526
H -3.742816 1.389482 -2.443245
