114

C 4.422264 -3.976239 -1.598774
C 5.763124 -3.364026 -1.201756
C 5.624786 -2.168908 -0.230227
C 7.033618 -1.591399 0.185980
N 6.995034 -0.127145 0.529081
C 8.306221 0.310003 1.030873
C 6.505947 0.778699 -0.572478
C 5.690869 2.001369 -0.010209
C 4.508531 1.709126 0.921928
C 3.213685 1.158151 0.652613
N 2.530706 1.009776 1.815614
C 3.330042 1.454831 2.795126
C 3.052763 1.459037 4.161984
C 4.048959 1.924182 5.036109
C 5.292532 2.359222 4.531293
C 5.548069 2.337201 3.149071
C 4.535875 1.879771 2.298927
C 2.694218 0.549854 -0.664924
C 1.168623 0.666269 -0.727280
C 0.315232 -0.463031 -0.617142
C -1.058492 -0.258855 -0.550685
N -2.004344 -1.201104 -0.437805
C -3.202230 -0.556908 -0.359448
C -2.982849 0.827834 -0.453638
C -1.609459 0.984046 -0.584274
C -0.820558 2.122831 -0.734933
C 0.585306 1.968583 -0.803873
O 1.433028 3.083179 -0.930162
C 0.990750 4.434498 -1.006449
C -3.990114 1.930266 -0.574452
C -5.116881 1.849479 0.462299
N -6.024078 0.695577 0.310489
C -6.757336 0.580529 -0.986295
C -8.183228 1.174414 -0.891550
C -8.166690 2.664721 -0.678901
C -7.816502 3.602295 -1.795396
O -8.416583 3.120180 0.428073
C -6.782963 -0.903738 -1.426416
C -7.433794 -1.764247 -0.307696
C -6.735901 -1.515994 1.067950
C -7.708368 -0.949824 2.133455
C -7.134845 -1.029962 3.548680
C -5.492198 -0.595634 0.829160
C -4.543380 -1.292772 -0.223532
C -4.218745 -2.700529 0.285029
O -4.285311 -3.708218 -0.474347
O -3.780638 -2.856657 1.606341
C -3.459960 -4.125780 2.160254
C -5.304278 -1.336849 -1.602112
C 3.255548 -0.911340 -0.941325
C 4.779031 -0.971342 -0.722424
C 5.599858 0.028728 -1.574401
C 6.332643 -0.606482 -2.733904
O 5.664476 -1.136875 -3.663714
O 7.730699 -0.572693 -2.806313
C 8.462756 -1.225392 -3.835154
H 4.592624 -4.954874 -2.094461
H 3.782403 -4.136596 -0.705786
H 3.898430 -3.320596 -2.319743
H 6.330861 -3.104204 -2.114489
H 6.353630 -4.152742 -0.687448
H 5.152249 -2.592588 0.692142
H 7.384792 -2.168918 1.069075
H 7.781508 -1.769190 -0.613605
H 8.270393 1.374043 1.338314
H 9.089300 0.184590 0.251683
H 8.586168 -0.279651 1.929095
H 7.366523 1.210201 -1.134270
H 6.402579 2.678807 0.502643
H 5.308886 2.611873 -0.856363
H 1.586900 0.580579 1.942696
H 2.101778 1.109766 4.541164
H 3.866727 1.938303 6.104158
H 6.057853 2.706328 5.213824
H 6.508687 2.658517 2.772299
H 3.039446 1.206992 -1.483792
H 0.682750 -1.475927 -0.564848
H -1.823427 -2.229588 -0.416409
H -1.276785 3.099722 -0.781725
H 0.341231 4.574926 -1.895636
H 1.872008 5.100666 -1.103924
H 0.439124 4.709114 -0.083225
H -4.350750 1.985280 -1.617231
H -3.485389 2.902184 -0.396719
H -5.709289 2.783735 0.398769
H -4.676413 1.853547 1.483229
H -6.256532 1.139055 -1.798374
H -8.731140 0.968285 -1.836722
H -8.767118 0.700857 -0.078493
H -6.902607 4.174347 -1.529527
H -7.627479 3.044316 -2.736934
H -8.655259 4.310244 -1.960887
H -7.333698 -1.027021 -2.384196
H -8.524475 -1.565537 -0.259895
H -7.334126 -2.836743 -0.583616
H -6.416270 -2.505225 1.459134
H -8.650605 -1.540178 2.118931
H -7.967161 0.106923 1.924894
H -6.275335 -0.337875 3.661730
H -6.810159 -2.066918 3.782997
H -7.916393 -0.733883 4.280317
H -4.944706 -0.442276 1.784775
H -4.355169 -4.784305 2.143634
H -3.131677 -3.990813 3.211490
H -2.636345 -4.595890 1.580983
H -4.817968 -0.657780 -2.338120
H -5.283121 -2.333376 -2.087388
H 2.799434 -1.641907 -0.239233
H 3.010374 -1.206852 -1.983287
H 4.720367 -0.591923 0.298890
H 4.959642 0.762735 -2.092351
H 8.236655 -2.312315 -3.831423
H 9.547889 -1.085242 -3.652195
H 8.202715 -0.787713 -4.821259
