91

C 1.395750 3.770662 -1.116261
C 1.934506 3.058294 -0.122386
C 1.651851 1.574113 0.031058
C 0.193731 1.322483 0.481741
O -0.110137 -0.050610 0.271782
C -1.178760 -0.260987 -0.639829
O -2.314303 -0.680111 0.096926
C -3.487679 -0.632989 -0.707680
C -4.626753 -1.313967 0.069872
O -5.876765 -1.002102 -0.515361
C -6.494074 0.091175 0.147422
O -7.131954 -0.364092 1.339255
C -8.426625 -0.870996 1.070855
C -8.916701 -1.684652 2.277775
O -8.111624 -2.815457 2.463729
C -9.388412 0.296221 0.703082
O -10.044706 0.828895 1.828852
C -8.639788 1.422050 -0.056146
O -9.511019 2.074330 -0.941930
C -7.442503 0.849165 -0.829105
O -7.901757 -0.019712 -1.839868
C -3.291750 -1.301155 -2.110711
O -3.177394 -0.301966 -3.097439
C -2.016909 -2.172574 -2.101996
O -1.804132 -2.815412 -3.338440
C -0.772814 -1.367633 -1.641316
O -0.133215 -0.771292 -2.745982
O 0.026056 1.624804 1.869186
C 1.070638 1.665367 2.801742
C 2.343343 1.424190 2.450792
C 3.373959 1.567732 3.493039
O 4.310716 2.395036 3.353484
O 3.252818 0.862030 4.688570
C 2.626661 0.900755 1.039757
C 4.109162 0.990473 0.548758
C 4.894160 -0.342732 0.717864
N 4.873913 -0.738870 2.139147
C 5.653096 -1.957168 2.362245
C 7.140459 -1.674226 2.149750
C 7.382353 -0.920664 0.866071
C 8.692750 -0.852395 0.371508
C 8.968508 -0.210588 -0.847661
O 10.273072 -0.102804 -1.360686
C 11.444704 -0.530793 -0.675843
C 7.914185 0.333267 -1.585832
O 8.178465 0.914154 -2.826026
C 6.604996 0.289858 -1.086717
C 6.327230 -0.274727 0.175306
H 0.713182 3.311729 -1.828906
H 1.632575 4.825225 -1.224909
H 2.629817 3.553919 0.552090
H 1.790465 1.093805 -0.966148
H -0.473880 2.025224 -0.066472
H -1.426279 0.645005 -1.242931
H -3.771372 0.437814 -0.846090
H -4.487488 -2.416691 0.029687
H -4.575633 -1.046734 1.153775
H -5.737665 0.849946 0.461154
H -8.391527 -1.581169 0.210353
H -9.977992 -1.994487 2.131009
H -8.863954 -1.066978 3.200209
H -8.392964 -3.484464 1.785341
H -10.169891 -0.123942 0.032075
H -9.349049 1.160251 2.455434
H -8.233917 2.165558 0.671335
H -10.117029 2.633911 -0.387236
H -6.870705 1.698592 -1.279311
H -7.914020 0.494860 -2.688891
H -4.152415 -1.966138 -2.359650
H -4.094107 -0.088782 -3.398992
H -2.189183 -2.978300 -1.350667
H -1.767114 -2.118018 -4.044577
H -0.083461 -2.087881 -1.136693
H 0.844726 -0.863135 -2.607746
H 0.829191 1.940109 3.823797
H 3.931888 0.978557 5.434587
H 2.354110 -0.177777 1.059629
H 4.651891 1.830351 1.028813
H 4.091904 1.240141 -0.531983
H 4.360485 -1.119954 0.126873
H 5.315867 0.022524 2.705730
H 5.311170 -2.765980 1.677630
H 5.492897 -2.300897 3.406120
H 7.524892 -1.067451 2.995966
H 7.691503 -2.640971 2.133486
H 9.491399 -1.314804 0.936976
H 12.332680 -0.310514 -1.302173
H 11.551574 0.005797 0.291305
H 11.403254 -1.626884 -0.500982
H 7.441400 1.317251 -3.392502
H 5.815470 0.687006 -1.705459
