50

C -4.417988 1.819356 1.203432
C -3.319138 1.308750 0.626054
C -2.984367 -0.169995 0.794251
O -3.772196 -0.924211 -0.109410
C -3.758518 -2.288947 0.248980
O -1.595876 -0.481900 0.638626
C -0.919551 0.235970 -0.394969
O 0.457361 -0.123038 -0.410588
C 1.119512 0.030617 0.839821
O 1.928405 1.200089 0.807176
C 3.219777 1.051299 0.214963
C 4.294684 1.214740 1.303051
O 4.169846 2.477762 1.896913
C 3.410272 -0.220747 -0.661961
O 4.736913 -0.315371 -1.117030
C 2.964898 -1.520648 0.057636
O 4.054573 -2.248214 0.570936
C 1.922030 -1.242186 1.162224
O 1.040420 -2.328933 1.281819
C -1.049630 1.765623 -0.171930
C -2.512650 2.145569 -0.335999
C -2.932947 1.822561 -1.742130
O -3.769418 2.548465 -2.341955
C -2.409086 0.605962 -2.386368
C -1.488110 -0.156869 -1.767121
C -1.100606 -1.467907 -2.395656
H -4.706237 2.853236 1.039450
H -5.045815 1.207464 1.843993
H -3.249962 -0.430553 1.846112
H -2.727452 -2.705688 0.228870
H -4.224097 -2.446812 1.246744
H -4.358868 -2.853360 -0.493377
H 0.415399 0.161413 1.692247
H 3.351316 1.913474 -0.475932
H 5.309682 1.123844 0.857039
H 4.177561 0.434788 2.083315
H 4.875647 2.527483 2.593145
H 2.750751 -0.081179 -1.551620
H 4.738359 -0.972842 -1.861269
H 2.485735 -2.163397 -0.714738
H 4.531885 -1.667925 1.217024
H 2.428975 -1.078448 2.140828
H 1.548501 -3.061663 1.718586
H -0.712968 2.052661 0.847898
H -0.422351 2.318934 -0.906692
H -2.632573 3.234115 -0.135685
H -2.805058 0.311641 -3.351468
H -0.567341 -1.281759 -3.351506
H -2.009698 -2.074006 -2.596089
H -0.440000 -2.059216 -1.727640
