56

C 2.102320 4.378269 0.232377
O 1.871974 3.073376 0.748502
C 1.534821 1.989146 -0.067250
O 1.437912 2.143984 -1.315387
C 1.264438 0.650844 0.582667
C -0.017429 0.691415 1.452131
C -0.158439 -0.631840 2.193842
C -0.307420 -1.766380 1.174016
N -1.337530 -1.547023 0.129091
C -0.555574 -1.769901 -1.124975
C 0.324163 -0.573855 -1.529310
C 1.336051 -0.586019 -0.379590
C 2.767396 -0.918418 -0.705449
C 3.653262 -0.274226 -1.572427
C 4.977774 -0.736427 -1.640886
C 5.396167 -1.820874 -0.844730
C 4.492519 -2.453018 0.024696
C 3.184623 -1.973377 0.083813
N 2.123216 -2.531809 0.845643
C 0.919598 -1.925502 0.293284
O 0.414801 -2.692273 -0.757702
C -2.175333 -0.314969 0.229262
C -3.048548 -0.127807 -1.047489
C -3.992443 -1.287348 -1.244958
C -5.185155 -1.473707 -0.355165
O -3.785302 -2.093911 -2.138480
C -1.343012 0.933090 0.683201
O -1.410379 2.061909 -0.158804
C -2.017473 2.210361 1.110534
C -3.528585 2.410443 0.995524
H 1.188222 4.751796 -0.276014
H 2.950220 4.359285 -0.484667
H 2.353500 5.061963 1.068921
H 2.100179 0.525974 1.310182
H 0.134579 1.470989 2.232968
H -1.048173 -0.606408 2.861288
H 0.730781 -0.816394 2.836477
H -0.519482 -2.719931 1.705605
H -1.181776 -2.156159 -1.954587
H -0.241045 0.365286 -1.639578
H 0.823941 -0.790149 -2.499271
H 3.332003 0.559304 -2.181153
H 5.681209 -0.255664 -2.308131
H 6.417823 -2.172276 -0.907395
H 4.802652 -3.295847 0.628507
H 2.161456 -3.455118 1.331901
H -2.881492 -0.500511 1.066681
H -3.664115 0.784588 -0.996643
H -2.422164 -0.002943 -1.952563
H -5.091043 -2.433236 0.195082
H -5.268559 -0.645845 0.379461
H -6.108871 -1.494596 -0.970490
H -1.454351 2.972056 1.691581
H -3.845698 3.147923 1.761771
H -3.803404 2.826929 0.003434
H -4.084804 1.474832 1.200650
