48

C 3.249364 0.939227 -2.342229
C 2.430477 0.070061 -1.734302
C 1.893366 0.287467 -0.319894
C 3.076866 0.460772 0.618727
C 3.482449 -0.508498 1.438844
C 2.737768 -1.804187 1.497965
N 1.290767 -1.599910 1.329457
C 0.640302 -0.911215 2.449740
C -0.494068 -0.071399 1.871361
C -0.458988 -0.284165 0.328127
C -1.554023 -1.262279 -0.145078
C -1.936831 -2.370799 0.646335
C -2.885831 -3.286906 0.189214
C -3.443875 -3.141762 -1.077955
C -3.037060 -2.092699 -1.900032
C -2.085923 -1.163352 -1.451367
N -1.630931 -0.148996 -2.349115
C -0.760046 0.893937 -1.920163
O -0.344650 1.729783 -2.768956
C -0.445385 1.075031 -0.448212
C -1.443971 2.081587 0.087236
O -2.605734 1.704671 0.407087
O -1.100873 3.436359 0.155880
C -1.999727 4.431359 0.629396
C 1.008572 1.554456 -0.274551
C 0.929597 -0.894454 0.089034
H 3.572889 1.850115 -1.849060
H 3.601499 0.739047 -3.348932
H 2.151237 -0.817283 -2.294462
H 3.636988 1.391710 0.599304
H 4.330262 -0.342812 2.096465
H 2.941835 -2.311950 2.465414
H 3.108025 -2.466998 0.686471
H 1.347389 -0.255615 3.006410
H 0.238325 -1.665938 3.158605
H -0.317206 0.985539 2.162371
H -1.473201 -0.343618 2.320812
H -1.497983 -2.546423 1.617484
H -3.178576 -4.119964 0.815328
H -4.175276 -3.856338 -1.432893
H -3.453295 -2.010280 -2.896265
H -1.937934 -0.165619 -3.348322
H -2.905446 4.461842 -0.012602
H -2.290054 4.212268 1.678776
H -1.499763 5.420866 0.593414
H 1.114674 2.049860 0.717343
H 1.301910 2.323731 -1.021607
H 0.872090 -1.656227 -0.720604
