52

C 6.453918 -0.055411 -1.650565
O 5.053011 0.052687 -1.429153
C 4.477019 -0.065981 -0.159096
O 5.210655 -0.279550 0.846175
N 3.049594 0.049681 0.001155
C 2.220480 0.390961 -1.183650
C 0.941835 1.205686 -0.851310
C 0.542947 1.046934 0.619343
C -0.869666 1.375985 1.144690
C -1.085722 2.905343 1.275267
O -1.183130 3.490577 0.005350
C -0.737601 0.734363 2.493480
O -1.524219 0.924176 3.458734
O 0.357005 -0.119920 2.569947
C 0.915459 -0.300439 1.272655
C 2.463596 -0.314510 1.313476
C 0.232502 -1.620332 0.680775
C 1.206740 -2.783981 0.393914
C -0.728322 -1.458566 -0.520054
C -1.918657 -0.561159 -0.278152
C -1.983553 0.686763 0.369607
N -3.252044 1.170336 0.310277
C -3.966434 0.285585 -0.398928
C -5.315170 0.378128 -0.741187
C -5.871393 -0.657032 -1.512232
C -5.075269 -1.747783 -1.921406
C -3.717798 -1.814464 -1.559336
C -3.192147 -0.774459 -0.785473
H 6.813046 -1.056780 -1.331582
H 6.990512 0.734467 -1.083453
H 6.662887 0.073728 -2.732286
H 1.950688 -0.545123 -1.710764
H 2.813261 0.990607 -1.907938
H 1.152098 2.282428 -1.040123
H 0.115339 0.958487 -1.543911
H 1.201433 1.804797 1.117580
H -2.007266 3.117914 1.860612
H -0.244687 3.373355 1.835715
H -1.329038 4.460135 0.158237
H 2.808780 0.430358 2.064825
H 2.866608 -1.282050 1.669289
H -0.420852 -2.029357 1.486276
H 1.970290 -2.497369 -0.356917
H 0.662217 -3.670745 0.004583
H 1.700521 -3.118957 1.329827
H -1.133202 -2.467785 -0.744094
H -0.200491 -1.174300 -1.444969
H -3.623235 2.052850 0.724901
H -5.915455 1.222440 -0.427666
H -6.914749 -0.615191 -1.796529
H -5.511660 -2.537766 -2.518664
H -3.110681 -2.649762 -1.879989
