65

C -7.162320 2.224428 0.194283
C -6.147758 1.178882 -0.335128
C -5.359892 1.816730 -1.514718
C -6.808100 -0.206036 -0.547670
C -5.917635 -1.117224 -1.450796
C -4.425769 -1.190050 -0.948139
C -4.150451 -0.234051 0.221610
C -2.927929 -0.094173 0.739248
O -1.850062 -0.798651 0.192493
C -0.571063 -0.877889 0.821069
O 0.354231 -0.134830 0.046701
C 1.625230 -0.103858 0.673711
C 2.530782 0.867236 -0.098585
O 3.800058 0.934919 0.525268
C 4.787070 1.397515 -0.381456
O 5.110617 0.372795 -1.318257
C 5.993322 -0.574184 -0.751195
C 7.403341 0.024162 -0.600781
O 8.152947 -0.231040 -1.761965
C 7.345990 1.548577 -0.306044
O 7.535805 2.320397 -1.469246
C 6.029682 1.938488 0.398005
O 6.056345 1.430240 1.708902
C 2.249955 -1.529535 0.732089
O 2.622246 -1.986472 -0.548090
C 1.285092 -2.536714 1.400396
O 1.351913 -2.442526 2.803398
C -0.158019 -2.361922 0.874783
O -1.070266 -3.127979 1.622658
C -5.349168 0.504570 0.806385
C -6.456691 -0.556890 0.907659
H -7.867370 2.512947 -0.614135
H -7.763519 1.849469 1.046942
H -6.626552 3.135570 0.534622
H -6.054770 2.024835 -2.354421
H -4.912529 2.778221 -1.187305
H -4.532372 1.207910 -1.913544
H -7.893588 -0.207071 -0.787923
H -5.949066 -0.743452 -2.496367
H -6.349866 -2.141122 -1.464343
H -3.740994 -0.966206 -1.793848
H -4.205822 -2.227296 -0.614658
H -2.771977 0.556114 1.593362
H -0.635982 -0.456676 1.852426
H 1.533052 0.300636 1.708751
H 2.065770 1.878644 -0.080449
H 2.587472 0.537640 -1.163031
H 4.394634 2.261925 -0.966637
H 6.031026 -1.466919 -1.412412
H 5.615038 -0.935359 0.233165
H 7.886533 -0.493022 0.260433
H 9.103843 -0.062789 -1.530169
H 8.187710 1.795283 0.378783
H 6.813420 2.098082 -2.111577
H 5.981915 3.052286 0.437081
H 5.477779 2.018093 2.261812
H 3.177847 -1.487670 1.344063
H 1.827417 -1.934713 -1.138706
H 1.620986 -3.564190 1.138615
H 1.031869 -1.544356 3.073228
H -0.184607 -2.749654 -0.166299
H -1.166378 -2.708167 2.517472
H -5.177355 1.100461 1.727931
H -6.124613 -1.605224 1.092611
H -7.258455 -0.269142 1.623556
