50

C 1.707527 -1.880200 1.292507
C 1.733967 -1.851017 -0.254739
O 0.645150 -2.584678 -0.763934
C 3.059772 -2.418919 -0.771515
C 4.036547 -1.247292 -0.789701
C 3.197174 0.042587 -0.887878
C 3.576012 1.038149 0.207800
C 4.965415 1.551060 0.277282
O 5.794390 1.255843 -0.625704
O 5.369201 2.367430 1.331714
C 2.664910 1.466958 1.095933
O 1.325620 1.087007 1.001784
C 0.774286 0.601428 -0.217991
O -0.489806 0.011406 0.019585
C -1.499454 0.994657 0.188465
O -2.430042 0.532582 1.162197
C -3.384129 -0.343543 0.592506
C -4.076326 -1.162863 1.697528
O -4.584263 -0.340421 2.715225
C -4.369996 0.456950 -0.306791
O -5.499555 0.905226 0.402357
C -3.653149 1.656299 -0.986342
O -4.248814 1.950575 -2.223451
C -2.156145 1.359912 -1.182060
O -1.988782 0.304596 -2.099006
C 1.724916 -0.427437 -0.857371
H 2.544722 -1.292075 1.722366
H 1.804482 -2.925132 1.656254
H 0.747429 -1.483999 1.682434
H 0.756818 -3.527946 -0.474877
H 2.927398 -2.794754 -1.811472
H 3.439939 -3.256091 -0.145558
H 4.731381 -1.335527 -1.653806
H 4.639960 -1.274103 0.145170
H 3.389867 0.533463 -1.868344
H 6.317408 2.720554 1.382471
H 2.949249 2.118411 1.911306
H 0.693354 1.454382 -0.934121
H -1.085253 1.939883 0.614548
H -2.869597 -1.100267 -0.047800
H -4.910958 -1.748834 1.257656
H -3.353556 -1.892793 2.125628
H -3.815412 -0.081409 3.286492
H -4.729520 -0.237152 -1.098619
H -5.186935 1.546196 1.092876
H -3.718068 2.557167 -0.331756
H -5.148743 2.316492 -2.025229
H -1.654805 2.276238 -1.575590
H -2.061979 0.694745 -3.009093
H 1.398390 -0.533744 -1.919334
