77

C 3.992584 -1.077661 -0.914243
C 3.623095 0.169285 -0.570902
C 2.590304 0.868590 -1.422155
O 1.382953 0.139312 -1.351902
C 0.326591 0.850958 -1.961532
O -0.049687 1.932673 -1.127722
C -1.123346 2.724684 -1.635912
C -2.059088 3.050679 -0.459661
O -2.879974 4.172075 -0.771289
C -3.887006 4.632042 0.081645
O -4.139377 4.024870 1.160028
C -4.711970 5.811075 -0.342647
C -5.335341 6.516416 0.822422
O -4.613966 7.149914 1.641558
O -6.713285 6.453779 1.011379
C -1.877964 2.142136 -2.884919
O -3.139997 2.736491 -3.063735
C -2.009001 0.594041 -2.875832
O -3.272942 0.157885 -2.435173
C -0.861220 -0.110189 -2.110160
O -1.299047 -0.484200 -0.806679
C -1.117422 -1.859430 -0.496659
O -2.393544 -2.397449 -0.178521
C -2.353648 -3.780789 0.159239
C -2.098036 -4.683193 -1.067094
O -2.923796 -4.286101 -2.126584
C -1.412947 -4.058786 1.360788
O -1.279739 -5.438637 1.588629
C -0.025703 -3.439360 1.126433
O 0.795655 -3.577268 2.260873
C -0.162430 -1.965154 0.710975
O -0.654488 -1.200105 1.783750
C 4.119250 0.859343 0.701681
C 3.131547 0.677937 1.860813
C 3.179886 -0.721748 2.392143
C 4.337407 -1.399595 2.482165
C 4.326134 -2.788120 3.059243
C 5.656062 -0.794991 2.033479
C 5.549904 0.475354 1.149508
H 3.589366 -1.545904 -1.806221
H 4.690662 -1.659157 -0.328877
H 2.959494 0.910090 -2.471473
H 2.450343 1.913273 -1.059309
H 0.644503 1.213345 -2.970105
H -0.678233 3.693235 -1.956135
H -2.686153 2.173074 -0.206711
H -1.449647 3.299476 0.435906
H -5.506791 5.459191 -1.034066
H -4.069490 6.529699 -0.894016
H -7.153524 6.924129 1.795295
H -1.247582 2.392162 -3.773497
H -2.987415 3.630334 -3.473958
H -1.933886 0.274766 -3.939589
H -3.436839 0.544102 -1.538734
H -0.523521 -0.960024 -2.746888
H -0.665111 -2.441605 -1.329211
H -3.377613 -4.040992 0.508142
H -2.330304 -5.737612 -0.801128
H -1.035323 -4.645435 -1.383380
H -2.715063 -4.894895 -2.883063
H -1.858006 -3.576844 2.263514
H -2.133700 -5.745669 1.989828
H 0.472607 -3.987310 0.296792
H 0.345910 -3.130773 3.024178
H 0.849463 -1.605417 0.417264
H -0.345071 -0.268580 1.641031
H 4.153884 1.950073 0.478558
H 3.402639 1.374607 2.683382
H 2.095068 0.921157 1.538484
H 2.250164 -1.186481 2.708848
H 3.910814 -2.766306 4.088975
H 5.352391 -3.209157 3.103928
H 3.701896 -3.453961 2.425764
H 6.228367 -1.567444 1.476363
H 6.251827 -0.555947 2.940655
H 6.207941 0.373554 0.259874
H 5.959526 1.326481 1.736147
