52

C 0.402082 4.978159 -1.226432
O 0.417977 3.575762 -0.990316
C -0.228780 2.986036 0.100824
O -0.887994 3.701125 0.904436
C -0.187721 1.517015 0.282073
C 0.788784 0.754532 -0.254806
N 2.103160 1.244780 -0.538316
C 2.955056 0.114349 -0.419481
C 4.355815 0.106850 -0.498022
O 5.091373 1.264915 -0.745284
C 5.024445 -1.117022 -0.326724
C 4.300063 -2.300150 -0.090078
C 2.899745 -2.270996 -0.015293
C 2.246799 -1.043915 -0.162265
C 0.768173 -0.768829 -0.185647
C 0.129033 -1.358683 -1.445164
C -0.833256 -2.421398 -0.948775
N -1.198599 -2.109452 0.458290
C -1.383577 -3.381927 1.202486
C -2.496249 -1.345580 0.517624
C -2.343874 0.179370 0.263735
C -3.669556 0.882639 0.482030
C -4.339043 1.652124 -0.619437
O -4.208765 0.834805 1.578124
C -1.226604 0.822359 1.149102
C -0.492575 -0.240211 1.986324
C -0.033580 -1.351238 1.020584
H 0.863984 5.512862 -0.369604
H 0.984108 5.199518 -2.144395
H -0.642359 5.327828 -1.369019
H 2.419369 2.236317 -0.473967
H 4.652470 2.164006 -0.895953
H 6.104795 -1.154194 -0.384183
H 4.825549 -3.238800 0.028270
H 2.338528 -3.181932 0.147967
H 0.873719 -1.807055 -2.141370
H -0.428464 -0.593313 -2.026505
H -1.715061 -2.492031 -1.623935
H -0.303402 -3.399863 -1.025901
H -2.227884 -3.969315 0.776487
H -1.598697 -3.186130 2.276622
H -0.470239 -4.017636 1.161342
H -3.241431 -1.764155 -0.196438
H -2.968001 -1.468690 1.520427
H -2.083080 0.293239 -0.807484
H -5.336157 1.210423 -0.826387
H -4.468355 2.709117 -0.305753
H -3.742311 1.634109 -1.554946
H -1.659087 1.549182 1.871592
H -1.155104 -0.652814 2.777703
H 0.386978 0.207520 2.501829
H 0.637802 -2.023614 1.604007
