46

C -3.871041 -0.263996 -0.742441
C -3.092150 -1.405274 -0.158608
C -1.988744 -1.262482 0.610745
C -1.365133 -2.507266 1.234216
N 0.123084 -2.454245 1.305374
C 0.741946 -3.008661 0.093544
C 0.948500 -1.861965 -0.871258
C 1.148805 -0.642357 0.031220
C 0.399573 0.566324 -0.516169
C -0.852083 0.884574 -0.115985
C -1.546500 2.093031 -0.618438
O -1.339198 2.501309 -1.794369
O -2.473698 2.749711 0.196771
C -3.215294 3.881168 -0.241637
C -1.448854 0.099464 1.045568
C -0.326136 -0.110513 2.076178
C 0.691987 -1.091187 1.452636
N 1.304220 1.508357 -1.104892
C 2.597664 1.053803 -0.746956
C 3.798891 1.716869 -0.997282
C 4.992285 1.127394 -0.549783
C 4.964184 -0.103333 0.134833
C 3.742112 -0.749696 0.382006
C 2.562719 -0.137789 -0.053691
H -3.278287 0.233180 -1.535536
H -4.801830 -0.651779 -1.206709
H -4.154192 0.462698 0.046909
H -3.471587 -2.403389 -0.360855
H -1.710659 -3.435412 0.726683
H -1.755564 -2.592465 2.270363
H 0.149930 -3.826514 -0.373172
H 1.731073 -3.437687 0.367270
H 1.810724 -2.062204 -1.545970
H 0.033859 -1.755065 -1.496787
H -3.838645 3.609187 -1.119640
H -2.524153 4.707284 -0.512248
H -3.879461 4.221556 0.578928
H -2.260723 0.671010 1.543233
H -0.731097 -0.521266 3.027020
H 0.170014 0.855965 2.319201
H 1.564554 -1.156826 2.138811
H 1.092171 2.475126 -1.435115
H 3.812191 2.661289 -1.525560
H 5.938243 1.619490 -0.734864
H 5.889097 -0.555313 0.468485
H 3.717205 -1.702105 0.894995
