48

C 0.136843 1.575317 -3.195757
C -0.269561 1.471769 -1.923848
C 0.379178 0.529073 -0.912777
C 0.421942 -0.923692 -1.465109
C 1.826504 1.033815 -0.661617
C 2.559298 0.279504 0.462911
C 3.944132 0.837739 0.659701
C 5.039438 0.409318 0.002429
C 4.982952 -0.746706 -0.968052
C 6.339329 1.042699 0.311213
O 7.405255 0.635479 -0.221976
O -0.311056 0.607750 0.335989
C -1.622441 0.058640 0.325540
O -1.545581 -1.285386 0.772662
C -2.799196 -1.903635 1.061689
C -2.785941 -2.366680 2.521352
C -4.072821 -1.060617 0.751191
O -4.288547 -1.020778 -0.638173
C -3.955222 0.381374 1.291048
O -4.461846 0.431377 2.600942
C -2.494843 0.897071 1.273004
O -2.463744 2.241802 0.868519
H 0.959669 0.980770 -3.577973
H -0.359439 2.268223 -3.867330
H -1.092706 2.103097 -1.601954
H -0.554672 -1.215013 -1.906476
H 1.191522 -1.028611 -2.259200
H 0.661363 -1.645653 -0.657270
H 2.421132 0.967062 -1.598165
H 1.785261 2.110886 -0.381004
H 2.606133 -0.809622 0.260297
H 2.000792 0.409551 1.414458
H 4.038303 1.649539 1.372767
H 4.137302 -0.631171 -1.675916
H 5.907599 -0.813295 -1.577743
H 4.864095 -1.697298 -0.407074
H 6.391548 1.869844 1.008494
H -2.076245 0.092712 -0.690635
H -2.856526 -2.827952 0.446163
H -3.715226 -2.925353 2.762850
H -2.692567 -1.499849 3.207943
H -1.920788 -3.042138 2.692003
H -4.962494 -1.541380 1.224615
H -4.647496 -1.908134 -0.902553
H -4.586891 1.033520 0.640942
H -4.624746 1.388194 2.810449
H -2.051525 0.807597 2.293665
H -2.787470 2.779239 1.637909
