49

C 3.826141 -2.623728 1.348233
C 3.228955 -1.466843 0.599821
C 2.020581 -1.512661 -0.008592
C 1.217036 -2.790586 -0.047298
N -0.161735 -2.534197 -0.486029
C -0.229003 -1.955676 -1.844889
C 0.767603 -0.792839 -2.076475
C 1.525750 -0.311664 -0.808620
C 0.766073 0.814722 0.017349
C 1.211004 0.849351 1.510601
O 0.591903 1.902390 2.206396
C 1.141799 2.148730 -0.634497
O 0.709559 2.427123 -1.788273
O 2.015209 3.035213 0.008230
C 2.410462 4.275178 -0.565157
C -0.762390 0.657538 -0.005238
N -1.614385 1.711707 -0.127865
C -2.856918 1.222064 -0.015184
C -4.049981 1.941943 -0.070379
C -5.253497 1.235879 0.097628
C -5.237101 -0.157080 0.321597
C -4.017367 -0.854989 0.380558
C -2.835311 -0.128090 0.203523
C -1.503806 -0.514338 0.230125
C -0.995709 -1.896280 0.563377
H 3.918507 -3.506164 0.680800
H 3.194412 -2.877693 2.224936
H 4.837989 -2.349112 1.712919
H 3.819959 -0.556619 0.547244
H 1.702627 -3.501070 -0.751190
H 1.203700 -3.284114 0.948947
H -0.007123 -2.764001 -2.575503
H -1.265706 -1.633006 -2.084763
H 0.239091 0.052124 -2.564786
H 1.524795 -1.140274 -2.815127
H 2.452980 0.157212 -1.217571
H 2.308866 1.000516 1.574373
H 0.994814 -0.116257 2.018833
H -0.271356 1.555074 2.552423
H 1.519121 4.914709 -0.738261
H 3.097463 4.796541 0.132396
H 2.938680 4.098313 -1.525940
H -1.372475 2.720567 -0.246467
H -4.051031 3.011507 -0.236293
H -6.197254 1.763998 0.057924
H -6.169040 -0.691620 0.451959
H -4.011966 -1.921641 0.555525
H -0.468768 -1.840050 1.539463
H -1.853158 -2.571809 0.749217
