55

C -1.030041 -3.759957 0.752729
C -2.030469 -2.990436 -0.117567
C -1.587513 -1.556294 -0.501977
C -0.246171 -1.542092 -1.260310
N 0.133778 -0.142556 -1.509066
C 1.083882 0.006471 -2.639832
C 2.487190 -0.532985 -2.308842
C 2.912772 0.016660 -0.991814
C 2.034974 0.499132 -0.042397
N 2.698475 0.929086 1.056680
C 3.999139 0.680995 0.806707
C 5.083795 0.932145 1.645485
C 6.367204 0.584681 1.184116
C 6.537352 0.002567 -0.093081
C 5.425636 -0.237751 -0.921548
C 4.168093 0.116158 -0.435746
C 0.542693 0.575720 -0.263663
C -0.206317 0.059118 0.996810
C -1.594412 -0.565429 0.713838
C -2.687993 0.503124 0.612077
C -2.724578 1.339620 -0.442289
O -3.721089 2.307505 -0.578945
C -3.763461 3.178954 -1.700338
C -3.704019 0.609481 1.696549
O -3.894829 -0.363164 2.479353
O -4.440294 1.788354 1.869701
C -5.416121 1.944263 2.895321
H -0.151082 -4.073467 0.151890
H -1.515861 -4.679077 1.143086
H -0.686783 -3.153248 1.615172
H -2.211079 -3.576960 -1.045157
H -3.001648 -2.933316 0.420772
H -2.348665 -1.211996 -1.237624
H -0.378537 -2.091959 -2.218953
H 0.554634 -2.051722 -0.681493
H 0.691720 -0.505628 -3.546099
H 1.163040 1.085470 -2.899868
H 3.202248 -0.221512 -3.099152
H 2.470682 -1.642077 -2.256590
H 2.290158 1.357603 1.916527
H 4.944542 1.379163 2.620625
H 7.230418 0.764550 1.810829
H 7.529406 -0.260859 -0.435328
H 5.546346 -0.682816 -1.900910
H 0.287577 1.649088 -0.395487
H 0.410172 -0.728986 1.487595
H -0.302930 0.882880 1.738492
H -1.809035 -1.158739 1.626846
H -1.982869 1.260166 -1.223895
H -2.845503 3.803961 -1.728944
H -3.841799 2.589039 -2.637147
H -4.648934 3.841478 -1.614816
H -5.852672 2.962007 2.831517
H -4.944219 1.817731 3.892407
H -6.227000 1.195857 2.763752
