50

C -1.411522 -2.320003 -1.185366
C -1.582236 -0.869600 -1.571361
C -0.677705 0.066331 -1.209706
C 0.550954 -0.243274 -0.399344
O 1.293119 0.944064 -0.209156
C 2.374429 0.734626 0.684347
O 3.462761 1.527519 0.238775
C 4.615549 1.288881 1.030614
C 5.816211 1.996111 0.392105
O 6.057933 1.458053 -0.878562
C 4.385896 1.778761 2.478577
O 4.199548 3.172386 2.488452
C 3.149430 1.077017 3.074541
O 3.460454 -0.270089 3.328705
C 1.949378 1.169662 2.104852
O 1.459223 2.486087 2.063037
C -2.796755 -0.455628 -2.376773
C -3.837025 0.271700 -1.509059
C -4.340654 -0.584641 -0.373251
C -5.096607 -1.698285 -0.489351
C -5.410610 -2.491548 0.753877
C -5.678561 -2.176000 -1.770863
O -6.033259 -3.380158 -1.883882
O -5.888113 -1.312054 -2.840269
H -2.258841 -2.938142 -1.549116
H -0.475416 -2.722828 -1.625249
H -1.373822 -2.415857 -0.079996
H -0.838426 1.098438 -1.512228
H 1.165904 -0.985884 -0.954889
H 0.229628 -0.671227 0.576550
H 2.689184 -0.341000 0.706839
H 4.861981 0.200605 1.048882
H 6.715950 1.852456 1.032380
H 5.610628 3.086294 0.299242
H 6.855721 1.932181 -1.231873
H 5.281962 1.517687 3.090364
H 4.345108 3.475039 3.422761
H 2.887496 1.574996 4.037913
H 2.761598 -0.616172 3.943571
H 1.142011 0.488107 2.460198
H 0.951739 2.630350 2.904141
H -3.258903 -1.339777 -2.861735
H -2.478980 0.217228 -3.202923
H -3.363838 1.180776 -1.078349
H -4.678590 0.639657 -2.129310
H -4.011111 -0.281314 0.614277
H -6.482231 -2.359617 1.014168
H -5.211047 -3.569924 0.578599
H -4.793558 -2.177254 1.623956
H -6.295987 -1.644735 -3.706209
