53

C 0.824288 3.657940 -1.266699
O 0.682903 2.359246 -0.706781
C 0.807053 2.106559 0.664855
O 1.103371 3.056459 1.442449
C 0.700977 0.667966 1.224116
C -0.157517 0.758470 2.502958
C -1.627357 1.094608 2.090417
C -2.197179 0.054196 1.073655
C -3.612454 0.428117 0.603728
C -4.143739 -0.577882 -0.442120
C -3.139646 -0.951018 -1.562726
N -1.712589 -0.989171 -1.173648
C -1.137481 -2.257280 -0.689564
C -0.179663 -1.871179 0.477123
C -0.953840 -2.045320 1.741624
O -0.578114 -2.811031 2.616303
C -2.252615 -1.316755 1.855521
C 0.111660 -0.361656 0.174908
C 1.301418 -0.407860 -0.746429
C 1.425018 -0.697300 -2.121449
C 2.722384 -0.777631 -2.679233
C 3.824328 -0.571745 -1.833203
C 3.681913 -0.300655 -0.506055
C 2.419554 -0.235646 0.064544
N 2.080794 0.209626 1.381309
O 4.921251 -0.111747 0.070642
C 5.910674 -0.287398 -0.954573
O 5.169223 -0.578062 -2.149994
C -1.291378 0.048064 -0.239744
H 0.657737 3.601217 -2.361984
H 0.074211 4.346892 -0.823661
H 1.848845 4.042219 -1.077939
H -0.088473 -0.162497 3.110721
H 0.218867 1.555990 3.179101
H -2.259396 1.134409 3.004491
H -1.670283 2.112134 1.644354
H -3.600496 1.444142 0.150301
H -4.309566 0.459165 1.469707
H -4.509646 -1.502011 0.047898
H -5.046585 -0.135333 -0.915827
H -3.240710 -0.192271 -2.368269
H -3.436004 -1.921592 -2.016867
H -0.553409 -2.721750 -1.511649
H -1.925347 -2.986847 -0.393240
H 0.726926 -2.520225 0.494571
H -2.500426 -1.160380 2.928806
H -3.030030 -2.007421 1.487449
H 0.552718 -0.852037 -2.740867
H 2.862433 -0.986786 -3.730856
H 2.769876 0.621365 2.049117
H 6.496532 0.646654 -1.084975
H 6.576758 -1.138673 -0.701185
H -1.317772 1.031721 -0.751130
