107

C 3.475974 -2.031591 1.566050
C 4.804953 -1.988861 1.413928
C 5.551509 -0.698324 1.108456
C 5.208996 -0.351341 -0.370511
C 7.071934 -1.017160 1.284356
C 8.053267 0.169728 1.276777
C 8.259739 0.782811 -0.085277
C 9.102915 0.304470 -1.027483
C 9.931186 -0.941016 -0.821611
C 9.232464 1.065711 -2.318183
O 5.131279 0.245768 2.102112
C 4.985092 1.601785 1.696792
O 3.785011 1.765690 0.939377
C 2.654676 1.903919 1.780333
C 1.377771 1.630032 0.973097
O 0.266777 1.651701 1.847898
C -0.959356 1.527769 1.147315
O -1.944809 2.197436 1.920364
C -3.275237 2.091377 1.417824
C -4.178787 1.641048 2.573381
C -3.448295 1.202213 0.155843
O -4.836123 1.002159 -0.134826
C -5.314455 0.653860 -1.404358
O -4.508277 0.447276 -2.353664
C -6.767513 0.473293 -1.589579
C -7.411038 0.428339 -2.770045
C -6.806525 0.720262 -4.089498
C -6.058962 1.891475 -4.303826
C -5.503154 2.153098 -5.562260
C -5.706879 1.262593 -6.621307
O -5.139061 1.527002 -7.868408
C -6.487001 0.113626 -6.423011
C -7.040177 -0.152758 -5.161914
C -2.708007 -0.145815 0.299744
O -3.509945 -1.056946 1.043976
C -3.730123 -2.286573 0.369266
O -4.935675 -2.157766 -0.383186
C -5.403232 -3.410773 -0.842221
C -6.487584 -3.171721 -1.899786
C -5.960781 -4.239096 0.351427
O -5.860265 -5.614267 0.082662
C -5.253672 -3.866364 1.680875
O -5.301966 -4.950582 2.574623
C -3.794881 -3.447762 1.410694
O -3.112662 -3.127113 2.599329
C -1.326725 0.031801 0.995156
O -1.339770 -0.570320 2.267898
C 2.663723 3.308762 2.446747
O 2.077643 4.264982 1.600386
C 4.119128 3.736109 2.772907
O 4.158501 4.587877 3.893044
C 5.024650 2.505569 2.970996
O 6.337237 2.930908 3.230004
H 2.872649 -1.134984 1.480919
H 2.987755 -2.974300 1.790586
H 5.352750 -2.919510 1.534753
H 4.112072 -0.257221 -0.515665
H 5.556931 -1.160962 -1.045577
H 5.682794 0.581090 -0.716469
H 7.381868 -1.771218 0.532398
H 7.207806 -1.507135 2.276083
H 7.699276 0.943065 1.982470
H 9.033022 -0.160746 1.682430
H 7.745454 1.719785 -0.281094
H 10.594193 -1.128931 -1.691274
H 10.576646 -0.838770 0.077327
H 9.271326 -1.823496 -0.718457
H 9.437833 2.136064 -2.109640
H 8.281973 0.978821 -2.881833
H 10.061647 0.676799 -2.942852
H 5.830345 1.931430 1.055685
H 2.681912 1.130727 2.584802
H 1.475599 0.629560 0.490953
H 1.282800 2.395383 0.168604
H -0.904401 2.019230 0.142876
H -3.600970 3.117813 1.137407
H -3.897771 0.627042 2.927319
H -4.077668 2.353156 3.420677
H -5.242380 1.635149 2.262024
H -2.995844 1.768603 -0.693430
H -7.357637 0.317557 -0.694091
H -8.459711 0.153025 -2.756962
H -5.909555 2.602681 -3.496294
H -4.916348 3.051050 -5.712095
H -5.283714 0.911914 -8.656505
H -6.661174 -0.581215 -7.236278
H -7.643934 -1.039572 -5.020911
H -2.522086 -0.481430 -0.745901
H -2.886866 -2.540588 -0.319337
H -4.575826 -3.965730 -1.345864
H -7.321145 -2.576013 -1.472851
H -6.063740 -2.610274 -2.756188
H -6.889758 -4.134512 -2.275802
H -7.041347 -4.012042 0.489138
H -4.897433 -5.844456 0.006832
H -5.791875 -2.997782 2.123044
H -5.172988 -4.580009 3.485488
H -3.272338 -4.326405 0.974701
H -3.661389 -2.468732 3.100001
H -0.561165 -0.474114 0.361362
H -0.398606 -0.785006 2.499660
H 2.070482 3.232718 3.389688
H 1.880347 5.063986 2.157845
H 4.523223 4.306803 1.906224
H 3.835258 4.073968 4.679330
H 4.633020 1.930354 3.844777
H 6.775201 2.213075 3.757280
