71

C -2.227823 -0.251729 -5.529117
O -1.572927 0.207582 -4.353950
C -0.189638 0.400999 -4.285660
O 0.513505 0.219799 -5.319464
C 0.462526 0.822956 -3.012965
C 1.747624 1.240259 -3.045325
O 2.455190 1.578535 -1.877852
C 1.926098 1.427777 -0.555124
O 2.228675 0.134907 -0.061327
C 3.576432 0.041632 0.366394
O 4.025588 -1.274185 0.091369
C 5.401173 -1.411348 0.406161
C 5.901527 -2.763673 -0.121637
O 5.765472 -2.825308 -1.516365
C 5.620144 -1.295068 1.930637
O 4.984527 -2.359363 2.592865
C 5.067182 0.055775 2.439482
O 5.919571 1.099099 2.036896
C 3.650691 0.328271 1.889764
O 2.681211 -0.397609 2.609411
C 0.406753 1.617913 -0.611601
C -0.300404 1.472182 0.783109
C -1.274219 2.607166 1.023812
N -2.411937 2.238719 0.191286
C -3.719739 2.695389 0.733022
C -4.358580 1.716557 1.728189
C -4.385786 0.373286 1.098112
C -3.412616 -0.055330 0.224308
N -3.548585 -1.378718 -0.034255
C -4.633943 -1.770249 0.660857
C -5.159322 -3.058351 0.751547
C -6.269126 -3.257981 1.593399
C -6.809628 -2.183667 2.335458
C -6.248969 -0.896695 2.239281
C -5.165469 -0.725674 1.379050
C -2.201699 0.786879 -0.088375
C -1.737441 0.645169 -1.574340
C -0.184748 0.614276 -1.644706
O -1.143794 0.351845 0.746517
H -3.322065 -0.289508 -5.344465
H -1.867384 -1.269762 -5.790374
H -2.029497 0.444048 -6.373426
H 2.268792 1.346160 -3.988267
H 2.347816 2.225506 0.098369
H 4.229906 0.770190 -0.177957
H 6.004652 -0.625172 -0.106751
H 6.965752 -2.924369 0.165883
H 5.303207 -3.586772 0.322399
H 6.493363 -2.267766 -1.897921
H 6.716862 -1.339449 2.131626
H 5.393798 -2.422607 3.494893
H 5.015741 0.041582 3.553820
H 6.722104 1.056925 2.619922
H 3.429148 1.406063 2.052019
H 2.704038 -1.340107 2.303022
H 0.235587 2.644760 -1.010934
H 0.424137 1.388755 1.622374
H -0.869472 3.598961 0.728047
H -1.547739 2.627414 2.103231
H -3.615876 3.694728 1.211036
H -4.416481 2.831145 -0.122249
H -3.763124 1.676173 2.664201
H -5.391420 2.046200 1.967451
H -2.906731 -1.989266 -0.588061
H -4.730866 -3.880162 0.191607
H -6.708573 -4.243905 1.679081
H -7.657589 -2.353802 2.985696
H -6.651995 -0.070606 2.809503
H -2.131232 -0.293087 -2.016949
H -2.129861 1.496794 -2.172989
H 0.107504 -0.414840 -1.332699
