53

C 3.248117 3.353843 0.866899
C 2.978574 1.875622 0.877229
C 2.430344 1.205246 -0.162325
C 1.997484 1.949523 -1.423121
N 1.612249 1.094927 -2.563016
C 1.087192 -0.239412 -2.219394
C 2.079471 -0.976660 -1.338641
C 2.137612 -0.277411 0.011363
C 0.819724 -0.491037 0.797658
C 0.835715 -1.852104 1.471448
O 0.810259 -2.911815 0.786723
O 0.857022 -1.919831 2.868061
C 0.801427 -3.152384 3.575020
C -0.488899 -0.183734 -0.046847
C -1.044249 1.201590 0.231985
C -1.699864 1.598011 -1.082133
O -1.627360 2.998592 -1.276803
C -2.720018 3.639820 -0.655051
O -1.011143 0.961330 -2.133203
C -0.356635 -0.186386 -1.621562
N -1.108343 -1.364916 -2.065693
C -1.851724 -1.877844 -0.984195
C -2.813480 -2.885941 -1.049218
C -3.500299 -3.227332 0.126721
C -3.222104 -2.551740 1.330317
C -2.254230 -1.534800 1.361759
C -1.574073 -1.217615 0.178350
H 4.000013 3.600748 0.088699
H 3.650289 3.665932 1.852992
H 2.308712 3.914366 0.677427
H 3.231237 1.334830 1.786029
H 2.829326 2.609922 -1.753340
H 1.151243 2.622815 -1.182960
H 2.451650 0.967465 -3.177581
H 1.029855 -0.809259 -3.175316
H 3.087064 -0.960508 -1.810609
H 1.787698 -2.041650 -1.247214
H 2.983216 -0.733532 0.577168
H 0.835979 0.222721 1.652316
H 1.680656 -3.779547 3.316208
H 0.811230 -2.947397 4.665281
H -0.135031 -3.692188 3.320551
H -0.234961 1.918433 0.481253
H -1.775629 1.214121 1.069775
H -2.752188 1.221690 -1.103428
H -2.597047 4.736300 -0.767519
H -3.677809 3.357218 -1.145368
H -2.760089 3.414888 0.433757
H -1.260137 -1.636641 -3.062819
H -3.029953 -3.388453 -1.982712
H -4.250057 -4.007302 0.106532
H -3.754956 -2.817608 2.233934
H -2.033081 -1.014908 2.284612
