42

O -0.214332 -2.842042 0.172689
C -0.696597 -1.686929 0.020962
C -2.140433 -1.539696 -0.218862
C -2.715049 -0.337559 -0.360716
C -4.167617 -0.139846 -0.590910
C -4.994354 -1.147728 -1.126107
C -6.355493 -0.908801 -1.335086
C -6.910661 0.338364 -1.023560
O -8.267982 0.578567 -1.229630
C -6.096488 1.352069 -0.505518
O -6.650341 2.594450 -0.201453
C -4.730644 1.113355 -0.296184
O 0.132440 -0.558749 0.076195
C 1.535242 -0.624859 0.331309
C 2.159023 0.743889 0.022450
C 3.664071 0.709193 0.116704
C 4.312402 1.131389 1.287670
C 5.704921 1.069958 1.383210
C 6.466153 0.581316 0.316322
O 7.854199 0.532141 0.440453
C 5.825297 0.147725 -0.857080
O 6.577301 -0.344685 -1.922567
C 4.427283 0.210537 -0.950915
C 1.773011 -1.008857 1.765295
O 2.617703 -1.900081 2.048340
O 1.081229 -0.359184 2.783171
H -2.733626 -2.443243 -0.249757
H -2.102274 0.551295 -0.262473
H -4.596448 -2.112358 -1.408067
H -6.977690 -1.693255 -1.747029
H -8.881717 -0.135467 -1.604324
H -6.087347 3.348476 0.174546
H -4.110115 1.905679 0.105499
H 1.989166 -1.384498 -0.345229
H 1.868585 1.048510 -1.007019
H 1.743604 1.513706 0.710237
H 3.739604 1.504453 2.127712
H 6.194513 1.400412 2.290523
H 8.448896 0.186390 -0.303077
H 6.139161 -0.664060 -2.778676
H 3.935089 -0.130895 -1.853512
H 1.240316 -0.599082 3.754308
