50

C 0.135861 -3.046000 0.024422
C 0.583427 -1.807255 -0.798472
C 1.476812 -2.335092 -1.946809
O -0.541609 -1.206155 -1.446816
C -1.501752 -0.606241 -0.587816
O -1.295583 0.794724 -0.587975
C -2.029228 1.422646 0.457055
C -1.860391 2.943014 0.287590
O -2.342963 3.635933 1.407983
C -3.525412 0.949167 0.487545
O -4.429320 1.982903 0.799749
C -3.895703 0.245152 -0.839650
O -5.234486 -0.189080 -0.847623
C -2.915986 -0.917618 -1.139764
O -3.388399 -2.114721 -0.575001
C 1.376587 -0.774397 0.099003
C 2.599336 -1.401254 0.830662
C 3.464034 -0.339572 1.447296
C 3.803960 0.740775 0.728754
C 4.703758 1.778577 1.281432
O 5.143178 1.685747 2.459961
O 5.076793 2.868352 0.499832
C 3.245667 0.866010 -0.668653
C 1.741745 0.545934 -0.663856
H -0.603621 -3.641960 -0.551193
H 0.997867 -3.708004 0.255274
H -0.313631 -2.764322 0.998063
H 0.867578 -2.952867 -2.641879
H 2.302336 -2.980098 -1.583574
H 1.914303 -1.507275 -2.540340
H -1.450656 -0.999726 0.452247
H -1.553978 1.156835 1.429774
H -2.402437 3.286806 -0.618616
H -0.783540 3.185092 0.133700
H -1.671064 3.515555 2.128924
H -3.612592 0.191390 1.297969
H -4.568580 2.528914 -0.017186
H -3.786849 0.993396 -1.656729
H -5.392523 -0.709666 -0.017272
H -2.869589 -1.026421 -2.249875
H -2.926343 -2.855752 -1.046806
H 0.699571 -0.466963 0.925890
H 2.259614 -2.098760 1.625893
H 3.238576 -1.969393 0.127333
H 3.805908 -0.467114 2.467321
H 5.692559 3.584729 0.865728
H 3.390936 1.890068 -1.073233
H 3.776287 0.155943 -1.339432
H 1.226393 1.397491 -0.166678
H 1.373150 0.540554 -1.710617
