42

C -5.223634 0.833404 0.121694
C -3.697813 0.651003 0.155494
C -2.995425 2.030527 0.234676
C -1.498951 1.833619 0.269046
O -0.769267 2.694512 0.736137
C -0.923766 0.551774 -0.287647
C -1.773885 0.204026 -1.526580
C -3.166676 -0.246591 -1.011849
O -4.081629 -0.355307 -2.073763
O -2.973561 -1.484919 -0.395484
C -2.521162 -1.093839 0.876905
O -3.359611 -0.055530 1.325456
C -1.036515 -0.592433 0.782181
C -0.099635 -1.775345 0.468224
O 1.269043 -1.379369 0.564667
C 2.092838 -1.126491 -0.540594
O 1.655326 -1.297495 -1.712101
C 3.478499 -0.653939 -0.329320
C 4.326570 -0.401210 -1.423563
C 5.634323 0.048376 -1.216670
C 6.112125 0.251928 0.080971
O 7.417212 0.700227 0.271473
C 5.274825 0.003621 1.175942
C 3.966483 -0.446135 0.973205
H -5.729279 -0.155749 0.098287
H -5.527763 1.416428 -0.773840
H -5.566163 1.376277 1.028627
H -3.261830 2.655093 -0.645187
H -3.317581 2.561782 1.157256
H 0.128371 0.733232 -0.590184
H -1.293293 -0.615487 -2.104075
H -1.868235 1.080877 -2.205905
H -3.759991 -1.088307 -2.661187
H -2.601042 -1.950341 1.579686
H -0.738509 -0.192519 1.777692
H -0.327663 -2.218987 -0.524850
H -0.268728 -2.572433 1.223179
H 3.980632 -0.550333 -2.438769
H 6.277310 0.239139 -2.066567
H 7.792880 0.857376 1.199413
H 5.636412 0.159064 2.184481
H 3.338757 -0.629527 1.836160
