96

C -1.027919 2.121682 2.708387
C -2.471509 2.325872 2.311615
C -3.282093 3.004097 3.456722
C -4.733655 3.040813 2.892907
O -5.638107 3.512717 3.845820
O -4.690814 3.892069 1.768930
C -3.911870 3.152158 0.837355
O -2.547571 3.223365 1.236334
C -4.334766 1.702568 1.010768
C -5.186347 1.220094 -0.192978
O -5.405923 -0.176960 -0.273042
C -6.629092 -0.869560 -0.149017
O -7.585038 -0.413112 0.553317
C -6.778166 -2.146570 -0.872228
C -7.889174 -2.957956 -0.686937
C -8.043697 -4.130675 -1.429753
C -7.045188 -4.521054 -2.324705
C -5.899886 -3.756096 -2.473752
C -5.790937 -2.557191 -1.782265
C -5.124621 1.649162 2.323673
C -4.205232 0.512382 2.815210
C -3.189446 1.019355 1.810638
O -2.239505 0.041477 1.372729
C -2.585443 -0.721868 0.245968
O -2.594716 0.057336 -0.919473
C -1.403673 0.836140 -1.048450
C -1.479175 1.670895 -2.318657
O -0.472640 2.632117 -2.324634
C -0.080159 0.034085 -0.979904
O 0.822839 0.755464 -0.173546
C 2.165020 0.549114 -0.577767
O 3.001372 0.542643 0.564860
C 4.278370 0.000079 0.242542
C 5.246109 0.506000 1.319043
O 6.588127 0.048232 1.145715
C 6.938575 -1.298947 1.036256
O 6.179082 -2.172347 1.488515
C 8.124454 -1.679364 0.237761
C 8.332970 -3.015961 -0.153165
C 9.410915 -3.335733 -0.980071
C 10.299449 -2.361528 -1.398917
O 11.362181 -2.708852 -2.255553
C 10.105796 -1.040698 -1.001599
C 9.023604 -0.699019 -0.199211
C 4.763089 0.350592 -1.199752
O 6.156903 0.281766 -1.310019
C 4.167733 1.699354 -1.650195
O 4.479808 1.944144 -2.993090
C 2.623951 1.748370 -1.455578
O 2.298985 2.952034 -0.842598
C -0.205826 -1.429271 -0.438907
O 0.736298 -1.658021 0.589174
C -1.626819 -1.879845 0.013779
O -2.177793 -2.764369 -0.942960
H -0.385580 2.033056 1.799038
H -0.973192 1.176950 3.291105
H -0.662978 2.990855 3.313486
H -3.172797 2.481498 4.411211
H -2.924626 4.032319 3.599951
H -5.590348 2.859291 4.617569
H -4.058743 3.532217 -0.205070
H -6.138573 1.782061 -0.184695
H -4.682064 1.514532 -1.130086
H -8.691589 -2.644951 -0.020549
H -8.886420 -4.755496 -1.280031
H -7.163424 -5.426853 -2.902457
H -5.141803 -4.042196 -3.191582
H -4.906662 -1.964905 -1.935685
H -6.204834 1.440051 2.261148
H -3.909850 0.574096 3.899731
H -4.615032 -0.473214 2.496494
H -3.535818 -1.258138 0.446975
H -1.377906 1.570298 -0.238470
H -2.467824 2.159222 -2.374255
H -1.366571 1.039592 -3.220990
H -0.483030 3.069196 -3.220008
H 0.305504 0.001639 -2.025223
H 2.265383 -0.449526 -1.126679
H 4.198388 -1.100921 0.318697
H 5.257784 1.606678 1.325958
H 4.860549 0.201742 2.310421
H 7.668602 -3.813009 0.169698
H 9.574747 -4.360713 -1.270240
H 12.058595 -2.044287 -2.576172
H 10.786072 -0.268518 -1.326428
H 8.898803 0.325888 0.093167
H 4.362543 -0.419936 -1.867765
H 6.497816 0.996025 -1.911054
H 4.667008 2.481412 -1.019565
H 4.024567 1.243352 -3.532691
H 2.087679 1.743154 -2.434336
H 2.316152 2.852708 0.128939
H 0.092003 -2.094049 -1.257693
H 0.603282 -2.596784 0.949412
H -1.600341 -2.474640 0.950505
H -2.414298 -2.250874 -1.752120
