110

C 3.974615 -1.200122 5.219602
C 5.312149 -1.185525 4.478391
C 5.160787 -1.555542 2.984730
C 6.522362 -2.060497 2.424562
N 6.544696 -2.043129 0.945173
C 7.775203 -2.677604 0.446089
C 6.329984 -0.700479 0.322588
C 5.515077 -0.935617 -0.988295
C 4.599290 0.172425 -1.438904
C 3.388436 0.609865 -0.869383
N 2.900422 1.654349 -1.583516
C 3.758914 1.875201 -2.588430
C 3.682971 2.877027 -3.556297
C 4.722512 2.962728 -4.500217
C 5.803843 2.057791 -4.453719
C 5.858349 1.064757 -3.459364
C 4.806817 0.996460 -2.537188
C 2.659268 0.121846 0.371437
C 1.322667 -0.439442 -0.075197
C 1.251331 -1.664333 -0.790145
C 0.012771 -2.173903 -1.210726
C -1.131577 -1.432648 -0.922740
N -2.396889 -1.768169 -1.202478
C -3.187250 -0.752826 -0.753134
C -2.375699 0.240417 -0.155879
C -1.078340 -0.240712 -0.258813
C 0.135996 0.282897 0.190529
C -2.748479 1.420278 0.707664
C -3.962023 2.230099 0.250646
N -5.178083 1.426322 0.094578
C -6.016916 0.951190 1.240673
C -5.353074 1.003839 2.644795
C -6.332198 0.768290 3.770558
C -5.908428 0.057444 5.020995
O -7.476833 1.195014 3.690654
C -6.559763 -0.467133 0.884462
C -7.529278 -0.306951 -0.318300
C -6.865231 0.583232 -1.413536
C -7.290202 0.214330 -2.855420
C -8.690864 0.729236 -3.187904
C -5.317706 0.637160 -1.150418
C -4.718175 -0.791585 -0.892147
C -5.020254 -1.669995 -2.103595
O -5.673665 -2.745016 -1.995408
O -4.519708 -1.286684 -3.352787
C -4.719308 -2.067765 -4.523880
C -5.367738 -1.356409 0.427426
C 3.381615 -0.894288 1.288684
C 4.568572 -0.362203 2.144721
C 5.724363 0.305240 1.352463
C 5.504081 1.716870 0.870044
O 4.634261 2.444878 1.428564
O 6.342114 2.252693 -0.116627
C 6.219509 3.594188 -0.571251
H 3.242049 -0.509997 4.748335
H 4.133552 -0.881284 6.272679
H 3.554310 -2.229676 5.222784
H 5.782469 -0.184684 4.576540
H 5.981037 -1.920224 4.977179
H 4.473303 -2.432521 2.938974
H 7.366375 -1.452216 2.822616
H 6.675345 -3.100522 2.795381
H 7.864399 -3.712975 0.841619
H 8.668100 -2.092201 0.749424
H 7.751004 -2.753280 -0.660109
H 7.309181 -0.265033 0.022598
H 4.926509 -1.872767 -0.943011
H 6.246812 -1.150433 -1.794234
H 2.026388 2.190590 -1.390511
H 2.853566 3.570681 -3.582437
H 4.695175 3.731177 -5.263768
H 6.601307 2.134595 -5.183281
H 6.693914 0.381349 -3.424333
H 2.467720 1.016843 1.006977
H 2.157079 -2.206722 -1.037234
H -0.046844 -3.114491 -1.741106
H -2.695707 -2.658805 -1.661070
H 0.172561 1.221963 0.724577
H -1.899597 2.135217 0.712592
H -2.840208 1.087042 1.753431
H -3.719774 2.732411 -0.712164
H -4.151111 3.051276 0.969185
H -6.882690 1.647127 1.290721
H -4.557369 0.242382 2.717772
H -4.904282 2.000854 2.820139
H -4.832916 -0.213033 4.991193
H -6.505590 -0.866794 5.140016
H -6.078004 0.717366 5.894296
H -7.097002 -0.933633 1.736912
H -8.476865 0.168855 0.016283
H -7.788380 -1.309881 -0.723098
H -7.224144 1.629560 -1.258146
H -7.297716 -0.881422 -3.001041
H -6.575942 0.661966 -3.581277
H -8.962435 0.432095 -4.223960
H -8.727507 1.838110 -3.120868
H -9.436927 0.294602 -2.488265
H -4.799689 1.138292 -2.003819
H -5.805516 -2.177838 -4.729566
H -4.263224 -3.069969 -4.388663
H -4.236618 -1.564309 -5.385678
H -5.721000 -2.401977 0.326422
H -4.615854 -1.409775 1.239780
H 2.618407 -1.243550 2.022482
H 3.655915 -1.813794 0.744300
H 4.145551 0.402780 2.830478
H 6.525102 0.492281 2.099283
H 6.528791 4.288436 0.240537
H 6.866312 3.739656 -1.461093
H 5.165386 3.808811 -0.861100
