47

C -3.298846 -3.421679 1.033934
C -2.018910 -3.113854 0.777234
C -1.576030 -1.967239 -0.125811
C -2.244235 -2.159328 -1.504789
C -2.068274 -0.621933 0.555419
C -2.082095 0.639206 -0.349921
C -1.986474 1.914320 0.445952
C -0.865305 2.622452 0.734001
C -1.005809 3.830631 1.635563
O -0.806928 5.005754 0.898916
C 0.509617 2.315862 0.232076
O 1.492163 2.670411 0.935947
O 0.729585 1.797569 -1.056578
C 1.717187 0.825184 -1.480554
C 2.972844 0.653745 -0.564001
O 4.005228 0.062561 -1.315972
C 2.675865 -0.239346 0.690913
C 3.967853 -0.661052 1.394770
O 1.927166 -1.409296 0.367740
C 0.701303 -1.043873 -0.241487
O -0.156443 -2.170976 -0.293189
C 1.022863 -0.530639 -1.656442
O 1.871608 -1.428329 -2.327538
H -4.119936 -2.856893 0.606389
H -3.532364 -4.257525 1.685384
H -1.254412 -3.733179 1.239872
H -3.344951 -2.026714 -1.443388
H -2.030294 -3.176214 -1.899523
H -1.863854 -1.429535 -2.243750
H -1.506506 -0.445404 1.499502
H -3.117577 -0.745047 0.901021
H -1.331951 0.626360 -1.137210
H -3.049122 0.657227 -0.898223
H -2.928087 2.246010 0.868836
H -1.994171 3.866839 2.149195
H -0.245107 3.783036 2.442890
H -1.628338 5.141679 0.357776
H 2.063773 1.154846 -2.484575
H 3.327038 1.650832 -0.220313
H 4.385957 0.771473 -1.898091
H 2.117149 0.353632 1.446619
H 4.558633 -1.349874 0.754323
H 4.583146 0.231287 1.638705
H 3.723728 -1.189466 2.340931
H 0.268248 -0.245417 0.367915
H 0.118737 -0.387029 -2.278160
H 1.316327 -2.211075 -2.582307
