63

C -1.535532 -3.624567 -0.410964
C -0.266246 -2.766788 -0.402892
C 0.762563 -3.304942 -1.466000
C 1.862162 -2.232760 -1.795916
O 2.233191 -2.317635 -3.146662
C 1.322955 -0.800791 -1.501085
C -0.116615 -0.732614 -2.028773
C -0.543907 -1.237211 -0.633669
O -1.697762 -0.691946 -0.004586
C -2.803690 -0.590848 -0.892675
O -2.825640 0.674723 -1.536658
C -2.949626 1.742419 -0.609307
C -2.785619 3.058346 -1.387715
O -2.688630 4.155997 -0.520004
C -4.315748 1.674846 0.111604
O -4.420189 2.716269 1.049047
C -4.465468 0.317884 0.824697
O -3.617853 0.281669 1.946346
C -4.125494 -0.846199 -0.129957
O -5.187446 -1.086676 -1.022137
C 0.744903 -0.698685 -0.054246
C 0.701371 0.763458 0.463203
O 2.026139 1.262714 0.641957
C 2.756979 1.147204 1.830800
O 2.194803 0.746372 2.886789
C 4.189433 1.514659 1.847518
C 4.825638 1.942550 0.667728
C 6.181003 2.286636 0.679869
C 6.914156 2.206949 1.866058
C 6.293598 1.782224 3.043049
C 4.938525 1.436624 3.036927
C 1.137767 -1.722670 1.022153
O 0.354981 -2.881960 0.855426
H -1.273424 -4.689536 -0.234016
H -2.221679 -3.305926 0.399627
H -2.054696 -3.552934 -1.389117
H 0.222670 -3.578695 -2.399644
H 1.247813 -4.234562 -1.096054
H 2.763215 -2.406680 -1.166187
H 2.741751 -3.164295 -3.248329
H 1.984312 0.032620 -1.824670
H -0.375601 -1.402398 -2.876989
H -0.417986 0.317585 -2.232198
H -2.756781 -1.367168 -1.689491
H -2.132455 1.704463 0.144813
H -1.874262 3.003328 -2.026672
H -3.654198 3.208762 -2.063968
H -1.778765 4.125786 -0.123503
H -5.123877 1.780481 -0.649630
H -5.380766 2.789733 1.289686
H -5.524217 0.215928 1.161032
H -3.946684 -0.448560 2.533044
H -4.006110 -1.768002 0.477671
H -5.235124 -0.327897 -1.659209
H 0.200169 1.417397 -0.279277
H 0.113961 0.841628 1.404097
H 4.278695 2.010145 -0.264353
H 6.663366 2.614883 -0.231866
H 7.963091 2.473582 1.872995
H 6.863040 1.720177 3.961542
H 4.478896 1.109381 3.961128
H 0.922270 -1.325783 2.035365
H 2.218673 -1.968690 0.984245
