68

C -8.495021 2.104629 -3.413456
O -7.267298 1.759333 -2.780647
C -7.171301 0.742747 -1.822694
O -8.203723 0.104849 -1.472475
C -5.859902 0.415492 -1.215427
C -4.740389 0.989352 -1.692705
O -3.492995 0.725913 -1.126739
C -3.383245 0.162245 0.171161
O -2.026702 -0.060992 0.536778
C -1.336455 -1.115449 -0.127626
O -0.326613 -1.592298 0.749109
C 0.854923 -0.784072 0.830571
C 2.056938 -1.620341 0.363281
O 3.273450 -0.943556 0.670160
C 4.529931 -1.452438 0.331758
O 4.638762 -2.610152 -0.161836
C 5.717922 -0.612029 0.553470
C 6.953473 -1.017175 0.227799
C 8.167202 -0.180591 0.398690
C 8.111410 1.226303 0.492736
C 9.284198 1.975344 0.628708
C 10.528417 1.333265 0.666920
O 11.701842 2.069452 0.809928
C 10.594119 -0.059670 0.558572
C 9.423063 -0.811780 0.420158
C 0.808380 0.606427 0.107561
O 0.067648 1.518846 0.879926
C 0.199912 0.525734 -1.315054
O 1.237164 0.482073 -2.262089
C -0.703860 -0.708269 -1.480387
O -1.667142 -0.476834 -2.474601
C -4.363393 -1.029678 0.342641
C -4.558457 -1.337671 1.796436
C -3.542783 -2.034192 2.661587
O -2.914899 -1.110296 3.511593
C -5.706176 -0.856018 2.256536
C -6.502358 -0.197740 1.184942
C -5.788911 -0.628771 -0.106299
H -8.909712 1.222403 -3.951594
H -9.225126 2.461862 -2.655542
H -8.308502 2.917449 -4.145360
H -4.780739 1.664496 -2.539316
H -3.738041 0.957270 0.866418
H -1.984428 -1.987646 -0.321398
H 1.026288 -0.580953 1.910942
H 2.044423 -2.603706 0.884192
H 1.999427 -1.802109 -0.730008
H 5.554796 0.359946 0.998694
H 7.091637 -2.018687 -0.164937
H 7.172719 1.759052 0.437067
H 9.223365 3.054774 0.701001
H 11.690203 3.083147 0.874123
H 11.554268 -0.560546 0.581307
H 9.496624 -1.889906 0.335323
H 1.844622 1.011312 0.015349
H 0.637549 1.784069 1.649486
H -0.406242 1.446215 -1.485383
H 0.831604 0.673978 -3.148519
H -0.070391 -1.563181 -1.813904
H -2.104541 -1.349840 -2.665202
H -4.069783 -1.933314 -0.227112
H -4.033980 -2.846268 3.247214
H -2.769015 -2.510508 2.024715
H -3.531570 -0.961604 4.275557
H -6.017762 -0.913821 3.296265
H -6.466079 0.904723 1.327162
H -7.555725 -0.555389 1.205463
H -6.293021 -1.550312 -0.480991
