81

C -10.446787 0.410568 -1.550493
O -9.786058 1.004401 -0.436834
C -8.397744 1.177137 -0.342594
C -7.879237 1.783808 0.806896
C -6.502432 1.980319 0.947706
C -5.616827 1.563240 -0.062247
C -4.157358 1.747726 0.086649
O -3.697954 2.421980 1.049246
O -3.289509 1.167623 -0.846799
C -1.874662 1.078415 -0.682892
C -1.489583 -0.280642 -0.062118
C -1.921858 -1.534145 -0.806237
O -2.793624 -2.217612 0.080016
C -2.190269 -2.018824 1.347091
O -3.044720 -2.373596 2.424241
C -3.500773 -3.706652 2.323130
C -0.828183 -2.809188 1.320400
C 0.001787 -2.097438 0.185708
C 1.407847 -2.699528 0.087866
O -0.744500 -2.313262 -0.998338
C -0.050390 -0.532354 0.391688
O 0.991918 0.302340 -0.107518
C 1.205316 0.229475 -1.514498
O 2.419155 -0.442957 -1.806159
C 3.518753 0.095073 -1.080947
C 4.797992 -0.566713 -1.612960
O 5.933564 -0.181312 -0.839342
C 6.201296 -0.679219 0.442548
O 5.487622 -1.600921 0.926390
C 7.326355 -0.123462 1.225228
C 7.619803 -0.614140 2.511860
C 8.683500 -0.080688 3.245952
C 9.462746 0.945252 2.706303
C 9.180384 1.439344 1.430541
C 8.118058 0.910010 0.692174
C 3.608676 1.652922 -1.181315
O 3.216727 2.239285 0.034684
C 2.704457 2.165458 -2.309366
O 2.739385 3.568700 -2.341884
C 1.252810 1.663996 -2.113774
O 0.557118 1.723809 -3.334356
C -0.470352 -0.147379 1.816222
C -1.905633 -0.483602 1.389928
C -6.137359 0.950199 -1.215313
C -7.514862 0.762022 -1.357677
H -10.249857 1.001445 -2.469408
H -10.099462 -0.635964 -1.686927
H -11.539524 0.399375 -1.361127
H -8.549031 2.105309 1.595092
H -6.131572 2.447077 1.852007
H -1.483866 1.924965 -0.079128
H -1.431625 1.146879 -1.692715
H -2.421580 -1.323507 -1.775103
H -4.275951 -3.869892 3.099715
H -2.680930 -4.425265 2.531277
H -3.977946 -3.919226 1.342527
H -1.003860 -3.868295 1.032038
H -0.314212 -2.822290 2.304091
H 1.379185 -3.789839 0.298075
H 1.815640 -2.591382 -0.933850
H 2.087108 -2.218483 0.822625
H 0.394462 -0.327115 -2.030226
H 3.424793 -0.207287 -0.014334
H 4.961125 -0.255717 -2.667157
H 4.691339 -1.673851 -1.602145
H 7.027899 -1.407855 2.951108
H 8.903598 -0.462418 4.234884
H 10.285386 1.357144 3.275624
H 9.784271 2.235441 1.013742
H 7.916345 1.312196 -0.292977
H 4.649201 1.981134 -1.414023
H 3.960255 2.089193 0.675315
H 3.114194 1.767446 -3.268492
H 2.324160 3.844165 -3.201107
H 0.740831 2.353648 -1.407296
H 0.971904 1.063885 -3.948855
H -0.033887 -0.729904 2.650735
H -0.354763 0.945041 1.998595
H -2.715487 0.162554 1.782832
H -5.480084 0.618951 -2.010454
H -7.882653 0.292977 -2.260632
