49

C -5.210646 0.202834 1.825661
C -4.277251 0.880472 0.866166
C -2.994653 0.500931 0.708179
C -2.352796 -0.636382 1.463607
N -0.926006 -0.798973 1.035119
C -0.366980 -1.920107 1.840372
C -0.171932 0.481338 1.295186
C -0.876402 1.684537 0.587660
C -2.064935 1.179928 -0.253811
C -1.594082 0.087157 -1.252621
C -0.826296 0.723146 -2.439016
O -0.747894 -0.166157 -3.521445
C -0.874468 -1.087855 -0.451736
C 0.586430 -1.402672 -0.924101
C 1.546758 -0.431893 -0.312274
C 1.233680 0.373668 0.762250
N 2.295877 1.116286 1.147081
C 3.298402 0.743827 0.326352
C 4.609861 1.214312 0.328229
C 5.502025 0.681429 -0.620849
C 5.071847 -0.299944 -1.544282
O 5.977200 -0.809846 -2.471679
C 3.736961 -0.755841 -1.524496
C 2.878641 -0.207439 -0.574604
H -6.207620 0.688992 1.782586
H -4.819982 0.286144 2.861504
H -5.326201 -0.867448 1.554299
H -4.665103 1.709928 0.281523
H -2.411771 -0.412212 2.553224
H -2.927431 -1.570123 1.266919
H -0.862950 -2.880868 1.578063
H 0.724480 -2.050463 1.694658
H -0.513233 -1.741334 2.929120
H -0.119378 0.682285 2.389819
H -1.249125 2.397470 1.356648
H -0.182852 2.264686 -0.060986
H -2.561629 2.027597 -0.777000
H -2.521295 -0.342346 -1.699334
H 0.196553 1.026113 -2.139499
H -1.340489 1.653900 -2.771991
H -1.643328 -0.176441 -3.950181
H -1.458691 -2.015230 -0.657006
H 0.689094 -1.414124 -2.024712
H 0.868132 -2.424439 -0.592934
H 2.327519 1.830860 1.907990
H 4.934194 1.964213 1.038050
H 6.527419 1.027581 -0.641588
H 5.702269 -1.513279 -3.147282
H 3.388077 -1.504217 -2.224595
