25

C -2.846649 0.648678 -1.727574
C -2.280229 0.181351 -0.413099
C -3.063844 0.429180 0.850649
C -1.085146 -0.444655 -0.422667
C -0.361084 -0.973780 0.760040
O -0.822657 -0.855543 1.926525
C 0.976393 -1.625713 0.575887
C 2.051794 -0.584720 0.505191
C 2.496744 0.001726 -0.598795
C 3.510621 1.061909 -0.261978
O 3.574960 1.027289 1.161035
C 2.707492 0.056314 1.620540
O 2.523834 -0.209148 2.837195
H -2.148653 1.371241 -2.201461
H -2.985662 -0.219417 -2.406457
H -3.829031 1.149568 -1.601868
H -4.021003 0.950918 0.642739
H -2.477157 1.070151 1.541788
H -3.309236 -0.536198 1.341130
H -0.592765 -0.578769 -1.379872
H 0.976925 -2.239341 -0.351223
H 1.183002 -2.311061 1.426101
H 2.159561 -0.237903 -1.599059
H 3.162331 2.058031 -0.606889
H 4.499458 0.809892 -0.699256
