28

C 4.846730 0.644781 -0.188496
O 3.686527 -0.169275 -0.066321
C 2.390201 0.357840 -0.059519
O 2.220233 1.602676 -0.170577
C 1.228459 -0.556078 0.066694
C 1.428898 -1.952607 0.053437
N 0.371156 -2.808387 0.151307
C -0.908285 -2.360667 0.263008
C -1.145471 -0.987387 0.281019
C -0.099944 -0.098719 0.198027
C -0.590160 1.305678 0.259037
C -2.082831 1.169085 0.626625
O -2.872597 2.059667 -0.119877
C -2.468250 -0.313934 0.379754
C -3.276363 -0.536017 -0.907208
H 5.748646 -0.000642 -0.167437
H 4.822879 1.198706 -1.150820
H 4.898078 1.362863 0.657198
H 2.424115 -2.366776 -0.040730
H -1.725894 -3.065525 0.334734
H -0.465255 1.784556 -0.736545
H -0.051386 1.883948 1.040120
H -2.207190 1.381394 1.715080
H -2.682680 2.968300 0.232116
H -3.035756 -0.715724 1.248076
H -4.263377 -0.033255 -0.828006
H -3.458261 -1.620771 -1.062553
H -2.732222 -0.133731 -1.789244
