52

C -3.262707 -3.580034 -0.056874
C -3.117592 -2.086267 -0.352678
C -1.733820 -1.515565 0.053054
C -0.610120 -2.104866 -0.831424
N 0.698299 -1.530718 -0.461643
C 1.788628 -2.219331 -1.196067
C 3.163596 -1.808173 -0.638369
C 3.213355 -0.323091 -0.488502
C 2.092608 0.482575 -0.460575
N 2.436102 1.786635 -0.331610
C 3.780139 1.790803 -0.231636
C 4.611915 2.898538 -0.074526
C 5.999380 2.674177 0.000709
C 6.519891 1.363025 -0.085497
C 5.658673 0.262533 -0.249113
C 4.290335 0.516670 -0.317579
C 0.711428 -0.064800 -0.713804
C -0.320471 0.614352 0.198629
C -1.725592 0.037039 -0.055459
C -2.750048 0.714071 0.857385
C -3.593463 1.614142 0.318428
O -4.527369 2.304171 1.092985
C -5.411617 3.255861 0.518616
C -2.794608 0.410455 2.316290
O -1.810450 -0.130569 2.886823
O -3.926644 0.707368 3.071288
H -2.977047 -3.799583 0.993744
H -2.638558 -4.183264 -0.747556
H -4.320733 -3.883511 -0.204192
H -3.304317 -1.906537 -1.434001
H -3.917982 -1.564485 0.213753
H -1.520649 -1.813718 1.101334
H -0.828606 -1.920131 -1.908582
H -0.578069 -3.203873 -0.672740
H 1.696613 -3.322553 -1.086347
H 1.737970 -1.978416 -2.282730
H 3.966352 -2.149190 -1.326317
H 3.317780 -2.274684 0.357986
H 1.803736 2.617318 -0.328276
H 4.205148 3.899513 -0.011409
H 6.672629 3.512400 0.124297
H 7.588811 1.204234 -0.027749
H 6.048113 -0.744743 -0.320921
H 0.457252 0.147415 -1.778030
H -0.018815 0.465541 1.257152
H -0.344300 1.706741 -0.006170
H -1.971866 0.273501 -1.117293
H -3.549826 1.827004 -0.744173
H -6.049403 2.766877 -0.247981
H -4.831250 4.079913 0.052079
H -6.061065 3.676727 1.313327
H -3.961765 0.498503 4.061945
