47

C 3.946345 -0.501270 2.144334
C 3.267615 -1.692937 1.454800
C 2.190805 -2.314430 2.355008
C 2.689061 -1.283461 0.111035
C 3.195563 -1.843605 -1.070131
C 2.661128 -1.481072 -2.309640
C 1.629118 -0.533886 -2.398018
C 1.083574 -0.175437 -3.758615
O 2.077425 0.438420 -4.538536
C 1.101843 0.029500 -1.217629
O 0.066632 0.969311 -1.302367
C -1.126453 0.905841 -0.518277
O -0.840810 1.255066 0.824366
C -1.965225 1.093571 1.679442
C -2.197686 -0.381527 2.085109
O -2.887718 -1.096540 1.097791
C -3.220391 1.878864 1.194598
O -4.359796 1.485026 1.919265
C -3.476106 1.763756 -0.326275
O -4.115769 0.548181 -0.633543
C -2.157078 1.876751 -1.110121
O -1.655379 3.189851 -1.034651
C 1.638897 -0.348613 0.027726
H 3.205397 0.284053 2.405876
H 4.713322 -0.060510 1.470650
H 4.453890 -0.836781 3.078253
H 4.049585 -2.469137 1.297393
H 1.688375 -3.151729 1.825751
H 2.652527 -2.718109 3.280737
H 1.426360 -1.562683 2.644236
H 4.000237 -2.569277 -1.038748
H 3.046519 -1.951694 -3.206911
H 0.227351 0.526371 -3.685231
H 0.699758 -1.097114 -4.257330
H 2.585593 -0.284294 -4.991552
H -1.508280 -0.132829 -0.593018
H -1.673124 1.586194 2.632047
H -2.786096 -0.410139 3.030897
H -1.211895 -0.863171 2.278919
H -2.972759 -2.022381 1.435678
H -3.013887 2.957271 1.405711
H -5.035034 2.207031 1.814316
H -4.141013 2.613305 -0.618653
H -4.661162 0.707453 -1.447053
H -2.333539 1.607980 -2.177838
H -2.228208 3.754282 -1.621125
H 1.270491 0.104547 0.932989
