67

C -1.332155 -2.571905 -0.571171
C -1.125196 -1.574306 0.296063
C -0.799025 -0.156428 -0.132003
C -1.939026 0.453440 -0.967397
O -3.127863 0.455814 -0.201057
C -4.251690 0.878877 -0.961739
O -4.712224 2.132426 -0.470131
C -5.537263 2.048126 0.684504
C -4.735901 1.628609 1.936625
O -5.400788 2.027501 3.106294
C -6.823991 1.194182 0.455914
O -7.962486 2.017016 0.407953
C -6.746298 0.353917 -0.833946
O -7.135391 1.080297 -1.977358
C -5.337602 -0.233801 -1.003332
O -5.099432 -1.186914 0.003859
O -1.590657 1.791144 -1.333708
C -0.284922 2.165901 -1.670053
C 0.755340 1.338300 -1.466534
C 2.136246 1.761259 -1.796421
O 2.332524 2.803765 -2.479502
N 3.254699 0.992329 -1.310008
C 4.605665 1.564848 -1.312300
C 5.254838 1.332289 0.045951
C 5.252222 -0.132937 0.374528
C 6.281947 -0.671187 1.161017
C 6.307556 -2.044146 1.466347
O 7.324408 -2.619003 2.245050
C 8.420078 -1.898296 2.799512
C 5.290030 -2.873613 0.980618
O 5.316041 -4.236803 1.272230
C 4.250165 -2.337005 0.211403
C 4.204897 -0.963150 -0.077301
C 3.039201 -0.406064 -0.884082
C 1.735068 -0.501492 -0.068372
C 0.530987 -0.063484 -0.926811
H -1.564492 -3.565894 -0.204970
H -1.268555 -2.412020 -1.642354
H -1.201446 -1.787332 1.359041
H -0.695126 0.456781 0.792772
H -2.068807 -0.153641 -1.893843
H -3.994099 1.071195 -2.032096
H -5.863049 3.092922 0.884537
H -3.746658 2.133919 1.917924
H -4.550443 0.531370 1.950830
H -6.071490 1.326972 3.312697
H -6.946494 0.470701 1.296230
H -8.148285 2.302522 1.340755
H -7.464522 -0.490345 -0.735852
H -6.611142 1.920637 -2.014667
H -5.281997 -0.741202 -1.996783
H -5.587322 -2.012187 -0.254510
H -0.128088 3.160772 -2.066598
H 4.585209 2.658838 -1.506432
H 5.209635 1.081754 -2.110452
H 6.294613 1.725353 0.016819
H 4.691818 1.882847 0.830257
H 7.061959 -0.015836 1.524530
H 9.068100 -2.600336 3.362829
H 8.050158 -1.117831 3.497579
H 9.020972 -1.433884 1.989477
H 4.596705 -4.865504 0.935235
H 3.470177 -2.992696 -0.156274
H 2.932280 -1.030961 -1.798963
H 1.580399 -1.548535 0.268539
H 1.813001 0.143690 0.834651
H 0.466985 -0.741578 -1.806821
