52

C 4.847048 -2.141806 0.348300
O 3.677767 -1.367999 0.585471
C 2.388423 -1.906997 0.517461
O 2.230995 -3.127841 0.236347
C 1.191973 -0.988328 0.742432
O 1.568422 -0.028344 1.707038
C -0.064564 -1.768415 1.285026
C -1.333894 -1.302301 0.527322
C -2.595794 -1.919150 1.157263
C -3.859331 -1.278709 0.588790
C -3.851070 0.233108 0.830503
N -2.640993 0.903035 0.317617
C -2.648452 1.207313 -1.110819
C -1.190015 1.347429 -1.541151
C -0.323711 0.851317 -0.337609
C 0.552805 1.999022 0.066283
C 0.231723 3.177965 0.740595
C 1.224225 4.164609 0.862775
C 2.499608 3.967581 0.294264
C 2.792102 2.783614 -0.404121
C 1.791170 1.820310 -0.519470
N 1.923704 0.532649 -1.115958
C 0.788234 -0.243313 -0.615608
C 0.216463 -1.314076 -1.569580
C -1.137607 -1.800469 -0.964795
C -1.354021 0.279918 0.653313
H 4.827106 -2.553219 -0.683107
H 4.909086 -2.972051 1.083303
H 5.740912 -1.494560 0.459940
H 1.842175 -0.506585 2.534316
H -0.189001 -1.590607 2.376648
H 0.036520 -2.869542 1.173942
H -2.623268 -3.015619 0.974999
H -2.585258 -1.764846 2.259316
H -3.962470 -1.498511 -0.493613
H -4.744815 -1.718368 1.096537
H -4.758839 0.683346 0.371950
H -3.920264 0.421853 1.923834
H -3.158477 0.415004 -1.697991
H -3.193883 2.160918 -1.279373
H -1.029073 0.812186 -2.491079
H -1.000885 2.418303 -1.784812
H -0.758453 3.332367 1.148899
H 1.005419 5.085052 1.388136
H 3.257978 4.732875 0.395971
H 3.771664 2.621023 -0.834295
H 2.816206 0.135463 -1.484744
H 0.913064 -2.170756 -1.665502
H 0.098870 -0.949694 -2.608120
H -1.160300 -2.912173 -0.995366
H -1.964464 -1.463728 -1.615184
H -1.094758 0.581749 1.693322
