70

C 2.290324 -1.954968 3.487176
C 1.423733 -1.602231 2.530977
C 1.851071 -0.925906 1.232276
C 2.921766 -1.781864 0.496406
C 2.452684 0.464623 1.589865
C 2.788349 1.320783 0.355788
C 3.253630 2.694650 0.767541
C 4.541946 3.025197 1.007025
C 5.665601 2.024958 0.860956
C 4.853820 4.438621 1.425142
O 0.699048 -0.676560 0.425098
C 0.119610 -1.828887 -0.169543
O 0.643046 -1.954911 -1.486956
C 0.134893 -3.085387 -2.182279
C 0.713552 -4.408505 -1.630240
O 0.625140 -5.414904 -2.602673
C -1.412708 -3.037553 -2.291378
O -1.928060 -4.179916 -2.934580
C -2.073209 -2.805333 -0.918464
O -3.444166 -2.563845 -1.095678
C -1.404565 -1.617014 -0.206373
O -1.678032 -0.410091 -0.907460
C -2.416157 0.514802 -0.125710
O -3.803024 0.192298 -0.242058
C -4.701092 1.230314 0.152175
C -5.474268 1.712140 -1.083305
C -4.054100 2.400670 0.949962
O -4.990998 3.406635 1.244899
C -2.833676 2.996997 0.207070
O -3.222008 4.059860 -0.630342
C -2.105928 1.932003 -0.644291
O -0.715610 2.150364 -0.600816
H 1.923399 -2.406398 4.403387
H 3.359446 -1.795477 3.373606
H 0.358751 -1.760202 2.714318
H 3.907274 -1.710291 1.004273
H 2.635531 -2.853772 0.474565
H 3.054030 -1.439151 -0.552002
H 3.367749 0.343845 2.210232
H 1.712250 1.023403 2.205875
H 1.876332 1.449030 -0.262883
H 3.546368 0.823694 -0.282815
H 2.484500 3.453371 0.891666
H 5.736322 1.677022 -0.191795
H 6.643729 2.475947 1.126409
H 5.497231 1.159571 1.532552
H 5.944797 4.597983 1.554110
H 4.485673 5.147324 0.653971
H 4.348070 4.664608 2.387755
H 0.318291 -2.748487 0.430130
H 0.515589 -2.994470 -3.223743
H 1.785374 -4.250326 -1.371139
H 0.174371 -4.734626 -0.715953
H 1.094039 -6.204505 -2.227740
H -1.663424 -2.165251 -2.936338
H -1.940876 -4.922817 -2.280074
H -1.936466 -3.718150 -0.293009
H -3.874063 -2.687178 -0.209792
H -1.770209 -1.626614 0.849470
H -2.105565 0.484940 0.950152
H -5.452655 0.759674 0.825310
H -6.219494 2.483923 -0.802145
H -4.793774 2.126462 -1.855213
H -6.020976 0.856341 -1.531989
H -3.686528 1.979853 1.916727
H -5.684520 2.995442 1.826054
H -2.123391 3.374740 0.986111
H -3.237822 4.879845 -0.073076
H -2.448695 1.983983 -1.707235
H -0.531265 2.959673 -1.149512
