122

C -3.642645 0.507860 -2.989907
C -3.827258 0.517697 -1.667029
C -2.934777 1.320161 -0.741962
C -3.666634 2.625080 -0.368719
O -3.764322 3.438738 -1.527829
C -5.076981 3.929008 -1.716159
O -5.422395 4.780549 -0.631974
C -6.761452 5.222400 -0.762865
C -7.202685 5.918298 0.536175
O -6.348327 6.977363 0.872676
C -6.899636 6.149660 -1.990186
O -6.076652 7.280731 -1.834211
C -6.486852 5.369697 -3.250639
O -6.453884 6.240060 -4.352550
C -5.108762 4.710376 -3.049676
O -4.853519 3.839059 -4.121649
O -2.936663 3.347589 0.623654
C -2.075196 2.748228 1.542559
C -1.801943 1.436766 1.503503
C -0.717942 0.950392 2.373150
O -0.882517 0.903076 3.622181
O 0.515865 0.649080 1.796455
C 1.751834 0.621866 2.515257
C 1.947102 -0.723358 3.246600
C 3.088453 -1.420678 2.511157
C 3.944070 -2.424959 3.264082
C 3.391995 -3.280972 4.345899
O 4.163300 -4.017696 5.022190
O 2.020292 -3.284267 4.614723
C 1.437102 -4.091013 5.635383
C 5.192732 -2.640580 2.800829
O 5.736510 -1.871809 1.750621
C 5.016636 -0.830582 1.072100
O 5.921372 0.194902 0.713081
C 6.540979 -0.089264 -0.530932
O 5.713452 0.411122 -1.573255
C 6.225556 0.052822 -2.842840
C 5.180213 0.414622 -3.907737
O 5.623031 0.057525 -5.190354
C 7.581895 0.765513 -3.094922
O 7.421682 2.157691 -3.240688
C 8.565241 0.420561 -1.955364
O 9.761325 1.152806 -2.073243
C 7.918123 0.608528 -0.565075
O 8.762724 0.052232 0.410299
C 3.956805 -0.271691 2.033462
C 2.961593 0.793690 1.555160
C 2.569476 0.657417 0.069040
C -2.575735 0.526306 0.545652
C -1.828200 -0.794225 0.189078
C -1.918174 -1.888211 1.274775
N -3.324395 -2.154295 1.669901
C -4.048763 -3.068184 0.751960
C -5.499645 -3.177499 1.138713
O -5.948821 -2.563842 2.146366
O -6.361018 -3.952345 0.364697
C -3.394576 -4.467627 0.725264
C -1.931379 -4.300752 0.497064
C -1.240422 -3.144076 0.797754
N 0.064139 -3.259446 0.472081
C 0.205101 -4.511923 -0.001695
C 1.369767 -5.106385 -0.481949
C 1.287443 -6.427777 -0.957408
C 0.056027 -7.117095 -0.945806
C -1.111018 -6.491641 -0.464952
C -0.996508 -5.183385 0.002515
H -4.312189 -0.061500 -3.628695
H -2.831092 1.064529 -3.448103
H -4.671011 -0.025266 -1.249791
H -1.980906 1.584910 -1.264315
H -4.654576 2.346742 0.074478
H -5.787478 3.068375 -1.797770
H -7.450042 4.350588 -0.890370
H -8.233154 6.316610 0.409261
H -7.238262 5.172472 1.361899
H -5.543123 6.572032 1.285766
H -7.969055 6.455066 -2.090201
H -6.493362 8.016656 -2.352483
H -7.250550 4.572155 -3.429556
H -6.471892 5.677791 -5.169029
H -4.334087 5.513498 -3.018864
H -3.872101 3.694342 -4.153008
H -1.571019 3.388294 2.255114
H 1.764323 1.452174 3.256159
H 1.022433 -1.340785 3.222077
H 2.234163 -0.534810 4.305119
H 2.658043 -1.948755 1.636800
H 1.618338 -5.164572 5.416535
H 0.345406 -3.905503 5.667564
H 1.876704 -3.830553 6.621880
H 5.823951 -3.401149 3.246597
H 4.498152 -1.271713 0.186993
H 6.716108 -1.190303 -0.654136
H 6.378461 -1.051389 -2.898244
H 4.979527 1.508223 -3.885229
H 4.220168 -0.103467 -3.677037
H 5.526984 -0.928568 -5.256678
H 8.013019 0.378408 -4.042114
H 6.959769 2.502322 -2.434738
H 8.828180 -0.656440 -2.062676
H 9.557642 2.103352 -1.865971
H 7.777316 1.699648 -0.370270
H 8.520626 0.476092 1.275034
H 4.495278 0.155224 2.912099
H 3.410100 1.800830 1.692946
H 2.077396 -0.320768 -0.122401
H 1.876180 1.475657 -0.226814
H 3.459788 0.742393 -0.582703
H -3.535925 0.270920 1.045986
H -0.765567 -0.567732 -0.037907
H -2.232629 -1.229578 -0.749739
H -1.364745 -1.545560 2.172543
H -3.320702 -2.579507 2.628343
H -4.030252 -2.641489 -0.275518
H -7.342368 -4.036802 0.606676
H -3.837154 -5.096643 -0.073997
H -3.542584 -4.974805 1.703744
H 0.794415 -2.519224 0.535970
H 2.312936 -4.569346 -0.488767
H 2.175281 -6.917836 -1.336554
H 0.006993 -8.132612 -1.312856
H -2.063994 -7.006525 -0.466845
