60

C -2.374764 4.138404 -0.778926
O -1.688333 2.960018 -0.376628
C -1.244149 1.995195 -1.288278
O -1.505787 2.125504 -2.517115
C -0.538854 0.747495 -0.778179
C 0.416767 0.134176 -1.873548
C 1.807482 -0.157835 -1.274516
C 2.454272 1.205407 -0.930214
C 1.536181 2.018215 0.038659
C 2.327466 2.578394 1.257043
C 3.389382 3.605046 0.833643
O 1.462289 3.166232 2.197299
C 0.343685 1.110148 0.483111
N 0.946491 -0.118266 1.060542
C 0.175710 -0.841387 2.101656
C -1.339327 -0.596919 2.094310
C -1.950373 -0.870924 0.753901
C -1.638632 -0.265897 -0.472846
N -2.476233 -0.728645 -1.436227
C -3.300908 -1.603099 -0.841198
C -4.333037 -2.324966 -1.439090
C -5.090350 -3.186302 -0.626249
C -4.803684 -3.303343 0.750821
C -3.756809 -2.561024 1.326756
C -3.017323 -1.715983 0.493961
C 1.590695 -0.982854 0.034438
C 2.905019 -1.565474 0.600611
C 3.575209 -2.506029 -0.366136
C 2.999658 -3.860889 -0.650676
O 4.592427 -2.155192 -0.943895
H -2.613147 4.745284 0.118465
H -1.733318 4.737714 -1.459165
H -3.321189 3.869629 -1.293928
H 0.013924 -0.811338 -2.299539
H 0.550653 0.817889 -2.740283
H 2.425688 -0.707204 -2.016749
H 3.461372 1.028967 -0.500903
H 2.615084 1.787657 -1.864059
H 1.127406 2.890984 -0.517354
H 2.849429 1.737412 1.763594
H 2.920627 4.443521 0.275639
H 4.165769 3.137682 0.193848
H 3.891225 4.016342 1.735036
H 0.977874 3.902604 1.738858
H -0.252171 1.660073 1.237939
H 0.350135 -1.938755 2.041107
H 0.564886 -0.524889 3.092427
H -1.590137 0.433036 2.419284
H -1.786694 -1.263551 2.859569
H -2.482544 -0.461063 -2.445976
H -4.546962 -2.225253 -2.495418
H -5.898520 -3.761647 -1.058712
H -5.393650 -3.968257 1.368021
H -3.540873 -2.653571 2.382138
H 0.918005 -1.837664 -0.210090
H 2.689729 -2.128321 1.533504
H 3.602784 -0.750375 0.885497
H 2.094395 -4.045912 -0.034616
H 2.722695 -3.928396 -1.723577
H 3.753357 -4.641801 -0.417584
