71

C -5.765779 1.500280 2.191436
C -5.840772 0.552556 1.015072
C -4.809393 0.423277 0.123546
C -3.537885 1.256017 0.260187
O -2.481958 0.413643 0.671261
C -1.229239 1.074450 0.599407
O -0.251390 0.109280 0.258123
C 0.957423 0.740054 -0.141950
C 2.023158 -0.347968 -0.324334
O 3.115940 0.177541 -1.049526
C 4.208219 -0.722338 -1.016879
O 4.949046 -0.499673 0.170453
C 5.873017 -1.555449 0.396263
C 6.727236 -1.194747 1.626754
O 7.538798 -0.077562 1.374769
C 6.718449 -1.893596 -0.882332
O 8.067625 -2.138968 -0.570886
C 6.605384 -0.768241 -1.929446
O 7.219185 0.396144 -1.430041
C 5.115234 -0.497872 -2.258714
O 4.973214 0.809254 -2.763169
C 1.432732 1.829314 0.878445
O 1.209691 3.115897 0.356130
C 0.665877 1.695041 2.208470
O 1.046097 0.489024 2.827073
C -0.867871 1.719833 1.964462
O -1.524240 1.056651 3.019073
C -4.887241 -0.651435 -0.975353
C -3.987766 -0.329631 -2.193149
C -4.435912 -2.010740 -0.392595
C -6.342936 -0.724648 -1.489915
C -7.329127 -1.080494 -0.380276
C -7.115407 -0.275241 0.919782
H -5.727416 2.549214 1.831671
H -4.874566 1.270458 2.811255
H -6.657047 1.404130 2.844068
H -3.333641 1.730567 -0.722157
H -3.639320 2.097920 0.971115
H -1.231699 1.878596 -0.183773
H 0.798839 1.200851 -1.145679
H 1.573647 -1.188348 -0.896568
H 2.335383 -0.727647 0.675051
H 3.847171 -1.783821 -1.064060
H 5.303022 -2.467897 0.688535
H 7.375082 -2.054013 1.901450
H 6.063677 -0.999566 2.501411
H 6.959224 0.724204 1.452880
H 6.278185 -2.816405 -1.332539
H 8.452828 -2.645239 -1.335911
H 7.126277 -1.102143 -2.858905
H 7.563240 0.902214 -2.212631
H 4.806552 -1.233091 -3.042829
H 4.174708 0.808076 -3.353855
H 2.523286 1.724055 1.096832
H 1.864242 3.239564 -0.380950
H 0.944944 2.557901 2.860317
H 0.962738 0.623626 3.806151
H -1.185389 2.790224 1.926527
H -2.297822 1.617285 3.288106
H -4.266485 0.649798 -2.637972
H -2.914681 -0.307405 -1.909872
H -4.100633 -1.104945 -2.980690
H -4.607462 -2.824681 -1.128510
H -4.992256 -2.258070 0.537184
H -3.355074 -1.986884 -0.134706
H -6.431726 -1.478197 -2.303037
H -6.632322 0.261591 -1.916475
H -8.363097 -0.901871 -0.756641
H -7.259925 -2.171564 -0.158999
H -7.983109 0.412440 1.043449
H -7.138781 -0.980584 1.783186
