30

C -1.704196 -0.552754 -1.308204
C -1.397469 0.014754 0.104347
C -2.706061 -0.036509 0.934294
C -0.711283 1.392624 0.197839
C 0.355833 1.559938 -0.918124
C 1.384892 0.356032 -0.975558
O 2.675003 0.846088 -0.698559
C 1.029507 -0.876905 -0.009010
C 2.223216 -1.289631 0.888984
O 0.675813 -2.007479 -0.772170
C -0.185330 -0.519814 0.913716
C 0.040343 0.909921 1.440533
H -2.532060 0.026868 -1.769093
H -2.029430 -1.611183 -1.221338
H -0.865248 -0.521569 -2.023008
H -3.493651 0.572715 0.441470
H -3.065371 -1.085091 1.009158
H -2.581987 0.348586 1.966920
H -1.379109 2.267766 0.354013
H -0.150671 1.683916 -1.899203
H 0.895931 2.514741 -0.734967
H 1.389081 -0.020656 -2.025404
H 2.963398 1.373803 -1.489070
H 2.541595 -0.469191 1.563922
H 1.945676 -2.164324 1.515739
H 3.094637 -1.581436 0.264453
H 1.444734 -2.235612 -1.358229
H -0.429506 -1.273701 1.695017
H -0.517813 1.111029 2.380654
H 1.089527 1.267073 1.530879
