54

C -2.123864 3.835490 0.385752
C -1.213826 3.108265 -0.269125
C -1.525873 1.710545 -0.769324
C -0.468347 1.276486 -1.820236
N 0.817673 0.784460 -1.258220
C 1.991123 1.558377 -1.728046
C 3.299098 0.796656 -1.419537
C 3.419061 0.492900 0.085161
O 3.772133 1.651856 0.801864
C 2.115649 -0.088363 0.571887
N 2.202917 -1.298985 1.038272
C 3.576416 -1.646764 0.966294
C 4.151763 -2.848843 1.373846
C 5.536731 -3.014755 1.196890
C 6.309969 -1.986330 0.617768
C 5.703004 -0.785861 0.210123
C 4.326998 -0.649967 0.394614
C 0.833454 0.600406 0.209890
C -0.413731 -0.173581 0.645649
C -1.674792 0.692516 0.415165
C -2.933128 -0.165351 0.277957
C -3.037626 -1.037173 -0.743309
O -4.181681 -1.811660 -0.940468
C -4.285958 -2.720048 -2.027040
C -4.048663 0.012773 1.250016
O -4.057508 1.011701 2.020833
O -5.086797 -0.923287 1.322998
C -6.175724 -0.796794 2.230093
H -1.879513 4.837975 0.720616
H -3.114372 3.439013 0.587923
H -0.241830 3.551925 -0.466626
H -2.495332 1.787405 -1.312920
H -0.313444 2.112540 -2.540291
H -0.898335 0.455847 -2.429793
H 1.939423 1.699908 -2.830267
H 2.011683 2.563454 -1.250383
H 3.297982 -0.152926 -2.000513
H 4.171462 1.399012 -1.753269
H 3.772629 1.427547 1.769947
H 3.549366 -3.633038 1.813706
H 6.012026 -3.936027 1.507156
H 7.375851 -2.121661 0.487424
H 6.286280 0.011521 -0.231887
H 0.844345 1.588242 0.722895
H -0.457815 -1.124145 0.071273
H -0.343261 -0.438114 1.724464
H -1.771149 1.283490 1.351993
H -2.222095 -1.144307 -1.445278
H -5.274994 -3.221044 -1.989982
H -3.488249 -3.489730 -1.956226
H -4.193615 -2.172369 -2.988799
H -6.722882 0.150785 2.037896
H -6.870940 -1.649395 2.085618
H -5.801690 -0.810577 3.275554
