54

C -3.276283 2.757969 0.426690
C -1.880136 2.431554 -0.108949
C -1.822348 1.032884 -0.780715
C -0.762544 0.954083 -1.914505
N 0.627772 0.766357 -1.449772
C 1.297627 2.026042 -1.037408
C 2.819700 1.825327 -0.944458
C 3.107173 0.574901 -0.179755
C 2.196265 -0.449186 -0.013561
N 2.748527 -1.494671 0.643586
C 4.026261 -1.132329 0.871973
C 5.016848 -1.882591 1.503716
C 6.299655 -1.314882 1.618107
C 6.562644 -0.025908 1.101497
C 5.545242 0.710134 0.466896
C 4.284368 0.124239 0.374396
C 0.774186 -0.358727 -0.488935
C -0.179664 -0.213500 0.707755
C -1.656269 -0.126496 0.254973
C -2.236304 -1.479278 -0.290314
C -1.991792 -2.674585 0.654331
O -2.676776 -3.809159 0.194795
C -3.720495 -1.345544 -0.532270
O -4.191662 -1.579990 -1.679058
O -4.563096 -0.966394 0.517744
C -5.961897 -0.777503 0.347096
H -4.016663 2.766791 -0.401337
H -3.592329 2.017013 1.189690
H -3.266389 3.763370 0.898001
H -1.612215 3.221410 -0.843631
H -1.167409 2.505571 0.735271
H -2.795850 0.914587 -1.303594
H -1.018269 0.097202 -2.574214
H -0.836802 1.846063 -2.574500
H 0.927888 2.372541 -0.053100
H 1.102225 2.831353 -1.778590
H 3.286075 2.697449 -0.438497
H 3.246341 1.728290 -1.965581
H 2.285643 -2.393242 0.906644
H 4.808543 -2.871482 1.891137
H 7.091356 -1.871132 2.102825
H 7.554091 0.397982 1.193656
H 5.737680 1.697154 0.066683
H 0.552176 -1.309543 -1.019045
H 0.084688 0.696319 1.284814
H -0.029875 -1.044464 1.425560
H -2.240492 0.123465 1.167500
H -1.747008 -1.721787 -1.258166
H -2.334299 -2.419396 1.682922
H -0.907537 -2.917191 0.680902
H -2.506003 -4.524335 0.861484
H -6.147809 0.024910 -0.397993
H -6.434855 -1.723304 0.007764
H -6.409908 -0.478340 1.316702
