54

C 4.758522 1.291739 -1.319985
C 4.539042 -0.013524 -0.526609
C 5.382367 0.046112 0.767060
O 5.025542 -1.066232 -1.328472
C 3.023912 -0.272891 -0.191028
C 2.418076 0.722561 0.838489
C 0.897604 0.937402 0.676945
C 0.115137 -0.325385 0.234588
C 0.217587 -1.378446 1.377693
O -1.240256 0.108655 0.090275
C -2.180410 -0.896274 -0.278079
O -2.859923 -0.526760 -1.470164
C -3.685764 0.627904 -1.350750
C -2.891494 1.954692 -1.451250
O -2.456816 2.422235 -0.201738
C -4.705040 0.550903 -0.178014
O -5.815057 -0.246539 -0.521704
C -4.057347 0.053162 1.127564
O -5.056857 -0.251205 2.067173
C -3.162590 -1.170195 0.879354
O -3.950112 -2.297864 0.591869
C 0.711254 -0.865909 -1.128079
O -0.119060 -0.503118 -2.203389
C 2.139108 -0.356365 -1.447699
H 4.398908 2.184419 -0.771199
H 4.252693 1.247379 -2.306390
H 5.842499 1.434734 -1.519588
H 5.139418 0.948565 1.366870
H 5.200307 -0.853456 1.393301
H 6.464970 0.079513 0.518406
H 4.945596 -1.912255 -0.813960
H 2.989159 -1.282115 0.273377
H 2.897584 1.718631 0.772295
H 2.625042 0.347870 1.864754
H 0.483829 1.326869 1.633613
H 0.733923 1.736256 -0.081049
H -0.278688 -2.333641 1.114009
H 1.264343 -1.632923 1.626407
H -0.256711 -0.983786 2.301248
H -1.686070 -1.863701 -0.511282
H -4.306206 0.628295 -2.274607
H -3.520440 2.728832 -1.951609
H -2.004200 1.801179 -2.101467
H -3.158203 3.034444 0.142360
H -5.101915 1.572342 0.009556
H -5.482782 -1.083854 -0.936452
H -3.422656 0.872621 1.535933
H -4.609697 -0.320441 2.951174
H -2.586491 -1.359898 1.813379
H -3.377320 -3.095288 0.740250
H 0.756384 -1.979633 -1.070657
H 0.086421 -1.121188 -2.953177
H 2.598261 -1.036094 -2.197990
H 2.064613 0.651666 -1.911229
