53

C -2.035851 -3.747815 -1.325819
C -2.334706 -2.435572 -0.660701
C -1.391145 -1.623805 -0.126193
C 0.071588 -2.006503 -0.048932
N 0.562224 -1.654953 1.295748
C 1.826799 -2.347184 1.650192
C 3.035693 -1.810174 0.863280
C 3.034341 -0.322705 0.939033
C 1.914044 0.429708 1.226308
N 2.205402 1.752085 1.225930
C 3.511195 1.828577 0.902604
C 4.279981 2.982637 0.759093
C 5.635168 2.831024 0.410472
C 6.186230 1.544236 0.215496
C 5.388309 0.395432 0.368001
C 4.050745 0.578073 0.713580
C 0.574905 -0.182878 1.560012
C -0.555081 0.571265 0.806549
C -1.792167 -0.308048 0.530397
C -2.804639 0.486473 -0.297318
C -3.885489 1.030177 0.289789
O -4.125597 0.875280 1.656339
C -5.263938 1.450737 2.281075
C -2.571045 0.725820 -1.748204
O -1.513970 0.309022 -2.297076
O -3.523219 1.413612 -2.509821
C -3.357013 1.668498 -3.899338
H -2.968933 -4.167520 -1.756564
H -1.638639 -4.471635 -0.583735
H -1.302803 -3.602263 -2.147201
H -3.376128 -2.126623 -0.637052
H 0.637919 -1.454261 -0.830896
H 0.216150 -3.091552 -0.229413
H 2.015676 -2.212102 2.738103
H 1.730708 -3.442143 1.483410
H 2.972805 -2.124668 -0.199839
H 3.974241 -2.211765 1.301286
H 1.556667 2.544939 1.429225
H 3.849654 3.964311 0.909386
H 6.259603 3.706719 0.290365
H 7.229623 1.441388 -0.052612
H 5.801615 -0.593933 0.221419
H 0.407635 -0.039965 2.649659
H -0.859580 1.461346 1.400617
H -0.163141 0.947558 -0.164905
H -2.228225 -0.586288 1.514525
H -4.592302 1.607987 -0.294917
H -5.251487 1.202265 3.362048
H -5.243480 2.555005 2.163901
H -6.192281 1.043507 1.827306
H -4.239663 2.224913 -4.275864
H -3.272014 0.710031 -4.454060
H -2.446384 2.281730 -4.067065
