47

C 1.048777 2.809847 0.982006
C 1.781546 1.733692 0.227111
C 3.059686 1.958705 -0.133776
C 3.854443 0.910184 -0.800399
O 5.042700 1.142779 -1.147587
C 3.255097 -0.453707 -1.008318
C 1.750607 -0.287299 -1.267274
C 1.133513 0.367539 -0.005289
O -0.265137 0.552804 -0.186704
C -1.035075 -0.631778 -0.017309
O -1.899897 -0.796075 -1.131145
C -3.070808 0.022080 -1.138466
C -4.305766 -0.897895 -1.122111
O -5.443426 -0.201763 -1.552069
C -3.122004 1.126687 -0.039558
O -4.359785 1.791448 -0.040490
C -2.853534 0.542820 1.360960
O -2.408617 1.563880 2.218440
C -1.802208 -0.592345 1.324261
O -2.441068 -1.827187 1.534292
O 1.418185 -0.448250 1.143872
C 2.590558 -1.214859 1.254927
C 3.475351 -1.281905 0.242615
C 4.722040 -2.113595 0.385285
O 4.392453 -3.472533 0.479165
H 0.066934 2.454219 1.354672
H 0.881915 3.683833 0.317944
H 1.647186 3.129841 1.861508
H 3.522506 2.918740 0.064047
H 3.723172 -0.945401 -1.889332
H 1.301771 -1.283174 -1.468996
H 1.576163 0.351009 -2.162334
H -0.403724 -1.548537 0.006576
H -3.077836 0.548449 -2.118331
H -4.473664 -1.307515 -0.102803
H -4.127300 -1.753771 -1.811369
H -6.196511 -0.846283 -1.502964
H -2.326204 1.874785 -0.264751
H -4.380908 2.358090 -0.855717
H -3.807167 0.127309 1.766608
H -3.198468 2.125313 2.435218
H -1.066152 -0.427225 2.146653
H -1.741495 -2.472717 1.817387
H 2.761766 -1.772459 2.167086
H 5.412440 -1.946695 -0.472252
H 5.263232 -1.809125 1.306222
H 4.124712 -3.761963 -0.432276
