44

C -3.442858 -2.318430 0.519432
C -2.643363 -1.341963 -0.354079
C -1.390556 -0.679652 0.332257
C -0.359249 -1.796019 0.489127
C 0.700083 -1.935924 -0.345323
N 1.313294 -0.793499 -0.999140
C 2.674822 -0.628773 -0.583711
C 3.748446 -1.463754 -0.903225
C 4.981841 -1.239450 -0.265933
C 5.113053 -0.213932 0.694196
C 4.011698 0.593644 1.025195
C 2.806624 0.351738 0.369628
C 1.519226 1.001191 0.473181
O 1.215600 1.909693 1.292119
C 0.701653 0.514658 -0.710780
C 0.760095 1.633210 -1.780093
C -0.472845 2.520438 -1.383958
N -1.114370 1.786093 -0.279820
C -2.514477 1.995012 0.060461
C -2.816086 1.197681 1.366814
C -1.808278 0.029913 1.646099
C -0.801410 0.409302 -0.600961
H -3.959808 -1.784725 1.342658
H -4.223854 -2.804641 -0.102531
H -2.798816 -3.116703 0.937939
H -2.312798 -1.897503 -1.260794
H -3.352603 -0.572769 -0.718479
H -0.597859 -2.626168 1.140497
H 1.261257 -2.861969 -0.290422
H 3.631334 -2.270134 -1.615321
H 5.831407 -1.866446 -0.503114
H 6.064783 -0.052717 1.183443
H 4.098477 1.379421 1.764206
H 0.621389 1.207591 -2.798911
H 1.708538 2.215530 -1.761479
H -0.139806 3.517450 -1.025484
H -1.169079 2.638013 -2.244363
H -2.695713 3.076882 0.237574
H -3.172629 1.674376 -0.775469
H -2.787759 1.893412 2.233144
H -3.849220 0.793133 1.311111
H -0.901747 0.449418 2.133501
H -2.242157 -0.684863 2.375556
H -1.196277 0.162235 -1.624748
