95

C -3.112595 -1.119884 3.325272
C -4.422227 -1.392027 2.577547
C -5.168402 -2.659334 3.140121
C -6.393269 -2.818111 2.173708
O -7.116527 -3.984296 2.455925
O -7.181878 -1.655375 2.354340
C -6.365090 -0.631366 1.806806
O -5.330469 -0.316627 2.727677
C -5.673217 -1.256268 0.607942
C -5.915662 -0.605740 -0.765142
O -5.386305 0.715391 -0.763599
C -5.199002 1.461620 -1.931573
O -5.574156 1.001888 -3.048232
C -4.526333 2.775857 -1.856677
C -4.130194 3.298838 -0.611327
C -3.487598 4.537310 -0.537469
C -3.232939 5.265749 -1.702478
C -3.615889 4.753794 -2.945311
C -4.259471 3.515557 -3.024426
C -5.921275 -2.756278 0.683139
C -4.406716 -2.987591 0.512647
C -4.232558 -1.529155 1.023793
O -3.314977 -0.588831 0.464081
C -2.407105 -1.137925 -0.465334
O -1.586805 -2.110095 0.165067
C -0.768517 -2.764226 -0.792388
C -0.096187 -3.971717 -0.129565
O -1.064897 -4.891101 0.303016
C 0.278132 -1.780880 -1.381329
O 1.159998 -1.357535 -0.348331
C 2.467225 -1.054919 -0.822464
O 2.816233 0.236640 -0.324271
C 4.203343 0.439824 -0.072749
C 4.496887 1.943061 -0.135036
O 5.845070 2.202291 0.253812
C 6.407288 3.483630 0.243988
O 5.713449 4.475149 -0.114862
C 7.820763 3.669417 0.646819
C 8.430812 4.937267 0.577036
C 9.769599 5.101137 0.947604
C 10.511432 4.005709 1.394270
C 9.917621 2.744163 1.470191
C 8.580359 2.572983 1.098154
C 5.121496 -0.349978 -1.036024
O 4.856639 0.043584 -2.360762
C 4.885831 -1.867897 -0.851074
O 5.163275 -2.543994 -2.053270
C 3.442278 -2.165321 -0.367322
O 3.004364 -3.410375 -0.843838
C -0.483400 -0.580112 -2.000366
O 0.385312 0.400379 -2.514111
C -1.538234 0.006602 -1.029561
O -0.949596 0.776926 -0.005976
H -2.653991 -0.171798 2.971354
H -3.312296 -1.023391 4.413981
H -2.394105 -1.951631 3.160483
H -4.531943 -3.569083 3.181253
H -5.526291 -2.467493 4.178293
H -7.964991 -3.928043 1.942600
H -6.958240 0.269731 1.557412
H -7.006448 -0.565786 -0.975482
H -5.421459 -1.209105 -1.559336
H -4.316110 2.754705 0.304587
H -3.181750 4.930195 0.425314
H -2.733206 6.222797 -1.639177
H -3.417713 5.320064 -3.848601
H -4.542234 3.134466 -3.996614
H -6.603226 -3.168028 -0.093231
H -4.182602 -3.155532 -0.562413
H -3.955469 -3.789817 1.130607
H -2.968638 -1.560683 -1.328530
H -1.390563 -3.172935 -1.625064
H 0.556440 -4.481363 -0.871041
H 0.543230 -3.650760 0.725030
H -1.405523 -4.557507 1.174663
H 0.811451 -2.330820 -2.194355
H 2.517715 -0.997065 -1.935934
H 4.418518 0.113478 0.969676
H 4.321228 2.322677 -1.165165
H 3.808900 2.481037 0.553199
H 7.875259 5.801695 0.235808
H 10.234782 6.078465 0.885651
H 11.546079 4.134566 1.684683
H 10.496632 1.896641 1.817171
H 8.144159 1.583311 1.164411
H 6.186445 -0.128409 -0.782124
H 5.686603 -0.108350 -2.882957
H 5.585494 -2.219696 -0.053486
H 5.487444 -3.449908 -1.808953
H 3.429225 -2.176684 0.747804
H 3.476820 -4.100285 -0.304230
H -1.045701 -0.979197 -2.874070
H 0.730675 0.942100 -1.760712
H -2.199892 0.682299 -1.615459
H -0.560624 0.167335 0.671225
