49

C 2.131698 4.316976 0.213579
O 1.444903 3.071862 0.233915
C 1.784429 2.008290 -0.608894
O 2.742287 2.127380 -1.421304
C 1.053651 0.723802 -0.506083
C -0.234567 0.682195 -0.111582
N -1.133276 1.785684 -0.271890
C -2.409099 1.196930 -0.460020
C -3.588297 1.870547 -0.785067
O -3.593586 3.255524 -0.934193
C -4.763501 1.114574 -0.953713
C -4.737328 -0.284443 -0.794154
C -3.537979 -0.939932 -0.473247
C -2.374874 -0.176470 -0.333650
C -0.996079 -0.623424 0.071082
C -0.978803 -1.052549 1.539570
C -0.525940 -2.500478 1.539729
N 0.135397 -2.786192 0.248966
O -0.244756 -4.036764 -0.131095
C 1.629269 -2.806224 0.360636
C 2.355746 -1.443446 0.116623
C 2.705647 -0.696451 1.394751
C 3.811199 0.318550 1.408138
O 2.116286 -0.930171 2.437701
C 1.701963 -0.566403 -1.000983
C 0.639941 -1.371820 -1.761386
C -0.419463 -1.819862 -0.738059
H 2.043393 4.783597 -0.790423
H 3.202762 4.163767 0.464538
H 1.679342 4.994587 0.966361
H -0.889888 2.761277 -0.551730
H -4.441805 3.757916 -1.168617
H -5.695211 1.606655 -1.202030
H -5.647843 -0.857067 -0.913621
H -3.518487 -2.012529 -0.330803
H -0.278792 -0.435560 2.140419
H -1.976310 -0.966534 2.027548
H 0.120023 -2.708957 2.420471
H -1.434554 -3.136532 1.660850
H 2.029041 -3.509569 -0.407913
H 1.961421 -3.262930 1.319467
H 3.349125 -1.743331 -0.290139
H 3.416076 1.299147 1.747904
H 4.608026 -0.011135 2.107267
H 4.253579 0.441394 0.397417
H 2.489385 -0.307920 -1.742844
H 0.167505 -0.744863 -2.550745
H 1.093932 -2.251892 -2.267325
H -1.245589 -2.297203 -1.315417
