69

C -5.119583 -4.437704 -0.727453
C -5.080938 -2.954251 -1.122449
C -6.371826 -2.249825 -0.667488
C -3.777436 -2.261077 -0.627110
C -3.607223 -0.885454 -1.235074
C -2.611241 -0.093685 -0.819586
C -1.697180 -0.578274 0.293922
C -2.518970 -1.247909 1.425090
C -3.635513 -2.201985 0.919191
C -0.566450 -1.468382 -0.248872
C 0.480445 -0.468800 0.248347
C 1.444035 -1.076934 1.247920
O 1.448680 -0.713421 2.415235
C 2.425817 -2.130269 0.797386
C 3.893517 -1.662666 0.889130
O 4.218824 -1.321838 2.212818
C 4.164101 -0.462732 -0.042767
C 5.634216 -0.003162 -0.041194
C 6.581523 -1.044056 -0.682407
C 7.955793 -0.463251 -0.902447
C 8.123198 0.828700 -1.194606
C 6.959188 1.721917 -1.196286
O 7.061048 2.904344 -1.615002
O 5.728602 1.240127 -0.743716
C -0.637756 0.413655 0.838395
C -0.663552 1.812687 0.271555
C -1.570636 2.699771 0.698221
C -1.652692 4.095072 0.204439
C -2.304169 5.053968 0.999357
C -2.410654 6.379821 0.568319
C -1.879643 6.759873 -0.666268
C -1.244737 5.813730 -1.473488
C -1.133689 4.486572 -1.047079
H -4.196511 -4.953063 -1.068561
H -5.988958 -4.936030 -1.207476
H -5.212347 -4.555023 0.372978
H -5.066848 -2.923857 -2.235632
H -6.326291 -1.160021 -0.869550
H -7.238126 -2.662879 -1.227177
H -6.561818 -2.409395 0.414059
H -2.926104 -2.868942 -1.007121
H -4.275956 -0.533124 -2.015419
H -2.498322 0.883532 -1.275584
H -2.995689 -0.439195 2.022269
H -1.845921 -1.795366 2.122127
H -3.425496 -3.225242 1.297796
H -4.590644 -1.877154 1.379328
H -0.508327 -2.463686 0.246780
H -0.554291 -1.553450 -1.358514
H 1.023784 -0.000295 -0.602690
H 2.207644 -2.428718 -0.251741
H 2.288482 -3.036872 1.425639
H 4.527948 -2.515356 0.557702
H 4.285139 -2.173178 2.720318
H 3.537038 0.395570 0.283671
H 3.861335 -0.719566 -1.081978
H 5.962008 0.172919 1.007546
H 6.677364 -1.934881 -0.026860
H 6.177665 -1.368878 -1.665790
H 8.814561 -1.122593 -0.893481
H 9.109851 1.214186 -1.418610
H -0.625490 0.449476 1.950640
H 0.093837 2.103628 -0.443226
H -2.266621 2.394943 1.472285
H -2.721776 4.778229 1.960508
H -2.905793 7.113049 1.192214
H -1.963318 7.786232 -0.998633
H -0.843020 6.107251 -2.434562
H -0.664089 3.773187 -1.709961
