108

C 1.504208 1.443122 -5.054894
C 1.886150 0.300528 -4.155426
C 2.335243 0.454573 -2.886406
C 2.385123 1.827916 -2.205348
N 3.481837 1.929048 -1.211984
C 3.480400 3.231262 -0.527308
C 3.597525 0.770772 -0.287338
C 2.401041 0.745693 0.714881
C 2.221439 -0.514863 1.511589
C 1.560750 -1.707923 1.150245
N 1.598824 -2.578225 2.190914
C 2.261347 -1.967395 3.185334
C 2.602927 -2.506919 4.423897
C 3.378824 -1.723199 5.295077
C 3.790728 -0.428354 4.912940
C 3.433398 0.088926 3.657159
C 2.666411 -0.716237 2.808865
C 1.151551 -2.185546 -0.236211
C -0.253542 -2.786278 -0.166441
C -0.502324 -4.125457 -0.571398
O 0.582932 -4.953591 -0.910120
C 0.473868 -6.309887 -1.328691
C -1.840101 -4.599995 -0.664720
C -2.923019 -3.765594 -0.358628
C -2.654339 -2.470592 0.080620
C -3.510557 -1.414967 0.355586
C -2.678748 -0.326773 0.642953
N -1.382965 -0.717519 0.586739
C -1.372578 -2.005796 0.191530
C -3.049976 1.143506 0.830786
C -2.349787 1.847768 -0.319071
O -1.332532 2.570065 -0.123701
O -2.768386 1.587021 -1.627865
C -2.059326 2.066427 -2.767919
C -2.529892 1.610741 2.243341
C -3.715310 1.849116 3.201011
C -4.479817 3.093195 2.692315
C -4.979246 2.862385 1.232457
C -4.554800 4.015966 0.294609
C -5.211600 3.938430 -1.083897
C -4.609346 1.407351 0.779715
N -5.284707 0.538730 1.778459
C -5.735314 -0.808826 1.367244
C -4.996279 -1.404743 0.165021
C -4.650180 0.615251 3.120706
C 1.213731 -1.157783 -1.389519
C 2.592969 -0.789994 -2.035627
C 3.873854 -0.504088 -1.163033
C 4.440818 -1.735813 -0.383575
O 5.639183 -1.402812 0.270802
C 5.032412 -0.173134 -2.122192
O 5.150303 -0.799327 -3.214037
O 6.009077 0.756248 -1.748336
C 7.115249 1.089053 -2.576848
H 2.388513 2.078808 -5.264044
H 0.695662 2.050972 -4.591651
H 1.124970 1.051473 -6.022369
H 1.787943 -0.701782 -4.566904
H 2.560003 2.619234 -2.967371
H 1.397733 2.035793 -1.743589
H 4.232566 3.250528 0.289821
H 2.479144 3.466489 -0.111204
H 3.767261 4.027443 -1.250469
H 4.505516 0.928133 0.341161
H 2.555190 1.572558 1.436091
H 1.447888 1.028105 0.250275
H 1.261248 -3.566980 2.194170
H 2.300318 -3.506633 4.700725
H 3.670418 -2.118556 6.256333
H 4.406132 0.157827 5.580538
H 3.764653 1.076644 3.357376
H 1.864745 -2.987859 -0.515394
H -0.072143 -6.366108 -2.289076
H 1.491235 -6.727560 -1.468158
H -0.051894 -6.905129 -0.556766
H -2.049893 -5.606839 -0.990778
H -3.933374 -4.131278 -0.462711
H -0.560897 -0.097792 0.741659
H -1.992880 3.180054 -2.739489
H -2.598508 1.766976 -3.693064
H -1.036898 1.626497 -2.788328
H -1.939972 2.551659 2.185076
H -1.854064 0.860627 2.709860
H -3.354084 2.006691 4.240037
H -5.348558 3.290545 3.357450
H -3.815775 3.984985 2.760295
H -6.091176 2.905313 1.265558
H -3.455666 4.087385 0.197545
H -4.876146 4.976869 0.752267
H -4.871973 3.046795 -1.644168
H -4.926096 4.833636 -1.674259
H -6.317416 3.912369 -0.988260
H -5.022461 1.239370 -0.233676
H -6.811711 -0.740101 1.101835
H -5.668779 -1.527194 2.217043
H -5.250601 -0.866306 -0.767926
H -5.369072 -2.442799 0.025710
H -4.059378 -0.303446 3.338719
H -5.446135 0.703006 3.886614
H 0.637829 -1.609833 -2.226688
H 0.607560 -0.269601 -1.157202
H 2.856876 -1.643952 -2.698442
H 4.643649 -2.557763 -1.107138
H 3.762775 -2.181530 0.347554
H 5.911245 -2.207593 0.785388
H 6.756923 1.449217 -3.563925
H 7.766650 0.197406 -2.707612
H 7.693453 1.901764 -2.092703
