41

C -4.818784 0.049356 -1.097218
C -3.344456 -0.023085 -0.668029
C -2.531332 -0.844372 -1.701757
C -1.087020 -0.921648 -1.271433
O -0.210868 -1.184980 -2.080667
C -0.749969 -0.686462 0.183867
C -1.871196 -1.371876 0.989966
C -3.155268 -0.522238 0.805189
O -4.264655 -1.226712 1.309427
O -2.936032 0.661020 1.517649
C -2.188693 1.407575 0.589905
O -2.818464 1.283504 -0.665032
C -0.728784 0.842903 0.536546
C 0.162859 1.674416 -0.407119
O 1.471529 1.113909 -0.498946
C 2.425689 1.202309 0.522079
O 2.192429 1.897931 1.549002
C 3.709233 0.479612 0.390325
C 3.955355 -0.329344 -0.734201
C 5.166473 -1.017155 -0.859261
C 6.142007 -0.905708 0.134063
C 5.908356 -0.106438 1.255382
C 4.698972 0.583474 1.385982
H -4.901300 0.483896 -2.116513
H -5.393153 0.698158 -0.402149
H -5.273059 -0.964400 -1.109181
H -2.590017 -0.353738 -2.698218
H -2.940621 -1.873982 -1.789065
H 0.228179 -1.155774 0.430237
H -2.033213 -2.417043 0.641881
H -1.593741 -1.414695 2.066472
H -4.931087 -0.560874 1.622129
H -2.180339 2.474676 0.898029
H -0.309484 0.938540 1.562416
H -0.279728 1.698537 -1.425109
H 0.225439 2.725471 -0.049475
H 3.213176 -0.433415 -1.515785
H 5.348269 -1.637800 -1.727203
H 7.078612 -1.439067 0.035168
H 6.664912 -0.021324 2.024768
H 4.539774 1.196844 2.264025
