50

C -1.584337 1.371093 -3.014436
C -1.156830 1.044831 -1.791285
C -1.596174 -0.237046 -1.118086
C -0.637378 -0.642579 0.019169
O 0.653694 -0.888106 -0.520961
C 1.658697 -0.094011 0.087133
O 2.757163 -0.042839 -0.812786
C 3.868700 0.596831 -0.210295
C 4.880272 0.981662 -1.297695
O 5.216089 -0.134063 -2.082194
C 4.503283 -0.320885 0.869066
O 4.993920 0.480520 1.916108
C 3.463739 -1.335755 1.399720
O 3.852883 -1.823524 2.658873
C 2.060455 -0.705900 1.470390
O 2.045922 0.289982 2.461869
O -1.105046 -1.848677 0.621267
C -2.462085 -2.168024 0.752326
C -3.421473 -1.427567 0.170181
C -4.845938 -1.812906 0.314717
O -5.749878 -1.099564 -0.198133
O -5.202240 -2.962766 1.015703
C -3.060017 -0.160989 -0.593478
C -3.346017 1.094581 0.288428
C -4.141559 2.165001 -0.463495
O -4.364638 3.260114 0.380278
H -1.250743 2.293574 -3.478190
H -2.268727 0.726423 -3.557364
H -0.469232 1.715080 -1.284359
H -1.550293 -1.050256 -1.879360
H -0.651985 0.144318 0.808015
H 1.294083 0.954124 0.218659
H 3.546418 1.555458 0.264462
H 5.782163 1.446994 -0.833859
H 4.419759 1.745840 -1.959499
H 6.130536 -0.415038 -1.818092
H 5.340708 -0.908764 0.423601
H 5.736347 -0.019998 2.345348
H 3.422739 -2.185920 0.676993
H 3.318276 -2.643063 2.827310
H 1.348043 -1.514237 1.757241
H 1.092570 0.467449 2.674684
H -2.717362 -3.055089 1.317307
H -6.174100 -3.229641 1.117865
H -3.713593 -0.132272 -1.494739
H -3.933458 0.816599 1.192018
H -2.405789 1.551958 0.660276
H -5.118476 1.741517 -0.787910
H -3.575773 2.498248 -1.359986
H -4.883319 3.917281 -0.152803
