50

C 3.450308 2.115625 1.600163
C 3.724306 1.735188 0.147528
C 2.972745 0.485746 -0.236226
C 3.366565 -0.712827 0.232588
N 2.585324 -1.902408 -0.012463
C 2.173381 -2.652376 1.159521
C 0.731189 -2.223498 1.389757
C 0.233483 -1.724277 0.008051
C -1.056461 -2.400259 -0.354521
C -1.287258 -3.735524 -0.690127
C -2.612657 -4.158725 -0.872329
C -3.678798 -3.255013 -0.699990
C -3.431300 -1.919899 -0.339921
C -2.103654 -1.516392 -0.150192
N -1.607737 -0.206038 0.133390
C -0.259791 -0.293570 0.078194
C 0.488589 0.814195 -0.338672
C -0.130636 2.071553 -0.303390
C -1.508518 2.185573 -0.007483
C -2.143810 3.528273 0.037043
O -1.450452 4.560016 -0.183252
O -3.504913 3.658546 0.333905
C -4.162036 4.918828 0.393209
C -2.261825 0.992804 0.137854
O -3.516150 1.031516 0.249193
C 1.759326 0.584384 -1.135560
C 1.602437 -0.719988 -1.941472
C 1.449035 -1.880206 -0.938690
H 2.362552 2.280885 1.755311
H 3.800211 1.315502 2.286360
H 3.990935 3.053537 1.846661
H 3.416683 2.583900 -0.500441
H 4.815011 1.580210 -0.001217
H 4.224151 -0.775796 0.892380
H 2.216290 -3.740899 0.933782
H 2.811143 -2.441451 2.046963
H 0.707743 -1.407878 2.146964
H 0.141345 -3.080471 1.785021
H -0.465738 -4.431757 -0.796402
H -2.816755 -5.187452 -1.139251
H -4.696916 -3.591936 -0.845813
H -4.260031 -1.238982 -0.217909
H 0.443262 2.946688 -0.582980
H -4.094566 5.429421 -0.590765
H -5.231030 4.760893 0.643752
H -3.698201 5.552902 1.178234
H 1.902742 1.412431 -1.864501
H 0.712097 -0.666857 -2.606650
H 2.498547 -0.887209 -2.578907
H 1.399833 -2.846930 -1.486702
