141

C -11.297992 7.179435 -2.933483
C -10.630632 6.691071 -1.693319
O -10.969414 7.164674 -0.573840
O -9.615684 5.733095 -1.783559
C -8.847638 5.324718 -0.655154
C -7.811180 4.324978 -1.076145
C -8.032226 2.992096 -1.164883
C -9.389651 2.398057 -0.887966
C -6.876265 2.070063 -1.510215
C -5.704626 2.232608 -0.520104
C -4.984363 0.946074 -0.219480
C -4.228177 0.247272 -1.090732
C -4.144585 0.618106 -2.548514
C -3.507324 -0.949197 -0.601892
O -3.110239 -1.827852 -1.414915
O -3.266430 -1.078078 0.773286
C -2.755485 -2.228052 1.452963
C -1.352620 -2.669013 0.965790
O -0.361020 -1.662932 0.779129
C -0.359087 -0.543383 1.660018
C 0.769039 -0.685457 2.704615
O 0.652971 -1.928061 3.351251
C 2.156433 -0.557008 2.026448
C 3.281831 -0.607421 3.064143
O 2.251004 0.676745 1.334323
C 1.332757 0.717435 0.252832
O 1.541639 1.890499 -0.513119
C 2.757999 1.813769 -1.236441
C 3.907225 2.336324 -0.412900
C 5.207739 2.090267 -0.684846
C 6.255528 2.709025 0.208054
C 5.646614 1.190096 -1.824410
C 5.655139 -0.289811 -1.407287
C 6.808203 -0.592220 -0.481862
C 8.039162 -0.963891 -0.897361
C 8.352881 -1.194348 -2.357472
C 9.134190 -1.122539 0.125500
O 9.543611 0.163367 0.543591
C 10.745099 0.085864 1.291187
O 11.851198 -0.273401 0.471693
C 12.075144 0.681620 -0.555067
C 13.180804 0.149074 -1.467285
C 12.469711 2.045455 0.053967
O 12.679059 2.983887 -0.969176
C 11.357115 2.532521 1.006287
O 10.207595 2.892317 0.281229
C 11.013713 1.423347 2.013521
O 9.899748 1.805183 2.774236
C -0.116013 0.706939 0.784751
O -0.443249 1.899123 1.465194
O -0.858525 -3.681719 1.826719
C -1.649739 -4.858576 1.714115
C -1.003011 -5.954611 2.557651
C -3.115419 -4.595645 2.163537
O -3.898438 -5.743347 1.948899
C -3.721830 -3.417689 1.374302
O -4.955149 -3.028133 1.963717
C -6.057998 -3.348083 1.137437
O -5.987920 -2.603954 -0.069524
C -7.003596 -3.016860 -0.965031
C -6.764231 -2.333282 -2.311006
C -8.397831 -2.645120 -0.397232
O -9.437350 -3.035845 -1.264868
C -8.593561 -3.259651 1.008410
O -8.791553 -4.649369 0.912558
C -7.358455 -3.000067 1.896621
O -7.344619 -1.672782 2.368737
H -10.924714 8.196207 -3.173089
H -11.072342 6.500156 -3.781772
H -12.396777 7.217924 -2.781499
H -9.511956 4.914214 0.136963
H -8.330470 6.214648 -0.231106
H -6.821490 4.713251 -1.299157
H -9.415544 1.311746 -1.114901
H -10.157935 2.891632 -1.519261
H -9.649624 2.529976 0.183706
H -6.526484 2.305106 -2.540139
H -7.220472 1.015036 -1.515891
H -4.983123 2.996088 -0.889260
H -6.090250 2.615373 0.452235
H -5.051891 0.607674 0.808036
H -4.031648 1.713761 -2.676877
H -3.258539 0.145120 -3.030268
H -5.059946 0.277696 -3.078742
H -2.686271 -1.971340 2.532837
H -1.476929 -3.097769 -0.050512
H -1.303299 -0.378879 2.205054
H 0.652517 0.141052 3.448241
H 0.909332 -1.797320 4.300977
H 2.316787 -1.410743 1.326063
H 4.262027 -0.464331 2.555384
H 3.151468 0.198044 3.818814
H 3.297935 -1.592075 3.575158
H 1.446761 -0.183024 -0.400271
H 2.953524 0.790788 -1.625653
H 2.665135 2.466026 -2.132022
H 3.659618 2.966567 0.437431
H 6.100331 2.377454 1.256870
H 7.280184 2.415278 -0.100870
H 6.181388 3.815691 0.163503
H 4.983594 1.329882 -2.703880
H 6.660890 1.487061 -2.169510
H 4.710733 -0.544482 -0.880851
H 5.692047 -0.934028 -2.311729
H 6.635782 -0.432693 0.580566
H 7.769698 -2.058890 -2.736995
H 8.107936 -0.290992 -2.952902
H 9.432215 -1.408790 -2.510440
H 9.976467 -1.696566 -0.321553
H 8.749691 -1.706051 0.991677
H 10.646904 -0.687022 2.089373
H 11.165494 0.798423 -1.189128
H 12.884281 -0.840590 -1.870073
H 13.343387 0.837028 -2.323647
H 14.130924 0.034786 -0.903107
H 13.408391 1.910998 0.637658
H 13.147949 3.758092 -0.555332
H 11.731014 3.413654 1.579339
H 10.355837 3.812630 -0.062594
H 11.893768 1.288266 2.686913
H 9.871141 1.204388 3.564007
H -0.800384 0.645200 -0.090544
H 0.238788 2.055290 2.168192
H -1.646158 -5.225850 0.658480
H -1.529412 -6.921631 2.416810
H 0.055211 -6.090780 2.248684
H -1.022699 -5.678547 3.632933
H -3.112566 -4.316913 3.246107
H -3.910954 -6.254141 2.800641
H -3.813481 -3.724031 0.302681
H -6.054787 -4.448976 0.932632
H -6.940641 -4.113990 -1.146125
H -6.839630 -1.232438 -2.204386
H -7.506501 -2.677826 -3.060287
H -5.749671 -2.583415 -2.684621
H -8.451486 -1.537992 -0.299574
H -9.298243 -3.991003 -1.495880
H -9.481364 -2.782340 1.490567
H -9.768135 -4.801492 0.809269
H -7.427502 -3.664202 2.787891
H -7.175857 -1.068768 1.600518
