87

C -1.424178 -4.427104 -0.289907
C -1.062228 -3.578166 -1.259619
C -1.020759 -2.078158 -1.021707
C 0.178200 -1.446417 -1.754562
O 1.343065 -2.226378 -1.527294
C 2.411055 -1.476228 -0.961883
O 3.648344 -2.122115 -1.228498
C 3.680177 -3.435361 -0.687287
C 4.974999 -4.123835 -1.142543
O 6.095326 -3.405964 -0.700251
C 3.563322 -3.400056 0.858612
O 3.564314 -4.699241 1.399787
C 2.285603 -2.638554 1.273733
O 2.273483 -2.439906 2.665110
C 2.227914 -1.276342 0.562173
O 3.278603 -0.455084 1.060604
C 2.851354 0.862614 1.378345
O 2.907178 1.694138 0.221276
C 4.163745 2.323116 -0.012935
C 5.230874 1.336914 -0.522090
O 4.782543 0.706505 -1.687933
C 4.668046 3.181615 1.190810
O 4.610666 4.553555 0.884357
C 3.857277 2.909208 2.466117
O 2.611376 3.561747 2.416023
C 3.629312 1.403941 2.608329
O 4.858890 0.733711 2.758026
O -0.085496 -1.416329 -3.154430
C -1.297239 -0.929830 -3.649625
C -2.377404 -0.859161 -2.856888
C -3.588173 -0.124392 -3.272425
O -3.810827 0.079115 -4.498678
N -4.484776 0.400502 -2.265157
C -5.724455 1.097672 -2.665094
C -5.885135 2.418767 -1.892272
C -5.581227 2.200728 -0.445047
C -4.802953 1.162778 0.037569
N -4.723447 1.206891 1.388331
C -5.428805 2.294197 1.753651
C -5.650736 2.756001 3.049560
C -6.436512 3.914225 3.213312
C -6.984513 4.569667 2.090680
C -6.751192 4.077428 0.789550
C -5.961781 2.934972 0.659864
C -4.320068 0.035276 -0.836024
C -2.859161 -0.344552 -0.494693
C -2.373932 -1.435551 -1.459536
H -1.672006 -4.056640 0.701094
H -1.478311 -5.496846 -0.484285
H -0.861007 -3.970907 -2.252086
H -0.859765 -1.907449 0.067745
H 0.266852 -0.391422 -1.403324
H 2.475962 -0.476901 -1.442149
H 2.846920 -4.045829 -1.104045
H 4.979154 -4.171313 -2.255601
H 5.010879 -5.164394 -0.746765
H 6.891040 -3.895020 -1.039563
H 4.444023 -2.858553 1.268993
H 2.764030 -5.170287 1.049522
H 1.383969 -3.228219 0.975513
H 1.990747 -3.299150 3.076342
H 1.210196 -0.865435 0.744700
H 1.790317 0.884936 1.718881
H 3.992091 3.021096 -0.863005
H 6.165533 1.901103 -0.745682
H 5.467970 0.576223 0.256366
H 5.498229 0.073228 -1.948604
H 5.729471 2.921019 1.422080
H 5.332418 4.724918 0.226545
H 4.436550 3.264458 3.352629
H 2.743275 4.476237 2.778591
H 3.010364 1.222101 3.521229
H 5.153399 0.880057 3.693772
H -1.338968 -0.581239 -4.676772
H -5.741914 1.326866 -3.753992
H -6.591290 0.432544 -2.448455
H -6.923302 2.796324 -2.015385
H -5.180154 3.175779 -2.295358
H -4.237664 0.524549 2.018671
H -5.224649 2.242027 3.904600
H -6.627189 4.296445 4.209701
H -7.590336 5.454765 2.230234
H -7.183484 4.568106 -0.075413
H -4.971220 -0.844075 -0.631433
H -2.812989 -0.729506 0.547844
H -2.199065 0.549631 -0.572244
H -3.150748 -2.235786 -1.450334
