56

C 5.042148 -2.689489 -1.496537
O 3.974228 -2.150245 -0.727400
C 3.017087 -1.286175 -1.266669
O 3.064720 -0.973772 -2.487221
N 1.962912 -0.779242 -0.432132
C 2.029999 -0.565994 0.988546
C 3.176178 -0.570962 1.791541
C 3.070072 -0.113741 3.115390
C 1.844449 0.374764 3.607488
C 0.709240 0.404577 2.783716
C 0.827895 -0.072598 1.476000
C -0.193775 -0.237972 0.377084
C -0.873513 -1.605866 0.694997
C -1.944203 -1.181135 1.728126
N -2.289105 0.227512 1.419411
C -3.742728 0.496480 1.254479
C -4.046676 1.514181 0.133107
C -3.440804 1.120123 -1.237143
C -2.181719 0.218539 -1.108565
C -1.216121 0.428889 -2.320143
C 0.102174 -0.392016 -2.186018
C 0.778245 -0.016295 -0.849261
C 1.250022 1.449729 -0.985475
O 1.884727 1.807101 -2.017374
O 1.072593 2.364618 0.059254
C 1.525248 3.710503 -0.009451
C -2.623138 -1.289842 -1.167824
C -1.621135 -2.168859 -0.479126
O -1.476366 -3.334602 -0.814426
C -1.457203 0.603835 0.260224
H 5.674445 -1.868739 -1.896567
H 4.638562 -3.295867 -2.334918
H 5.664918 -3.340201 -0.849111
H 4.136923 -0.880614 1.407048
H 3.943616 -0.112247 3.754283
H 1.779730 0.738166 4.624785
H -0.227665 0.794870 3.156634
H -0.180640 -2.373021 1.112562
H -1.516422 -1.229912 2.750985
H -2.822431 -1.865959 1.731566
H -4.122940 0.915175 2.210108
H -4.334721 -0.423529 1.074581
H -3.636231 2.501587 0.439773
H -5.146829 1.634812 0.031327
H -3.185654 2.061537 -1.771546
H -4.216657 0.617152 -1.856026
H -0.970782 1.508986 -2.414886
H -1.720028 0.148262 -3.270945
H 0.750488 -0.138499 -3.050816
H -0.061730 -1.481547 -2.276200
H 1.262800 4.230739 0.934355
H 1.034574 4.232998 -0.857711
H 2.627915 3.734127 -0.139152
H -2.750338 -1.628633 -2.219944
H -3.609092 -1.461690 -0.696832
H -1.237261 1.690002 0.302053
