79

C -7.494320 -0.134430 0.583211
O -7.537708 1.288443 0.535058
C -6.404656 2.115780 0.474271
C -5.096157 1.594112 0.457905
C -3.982787 2.450443 0.391434
C -2.616535 1.885811 0.360741
O -1.613723 2.646634 0.271591
O -2.443821 0.500190 0.417074
C -1.173445 -0.132832 0.318049
C -1.368377 -1.656893 0.301419
C -2.058521 -2.252883 -0.917086
O -3.266037 -2.817365 -0.432023
C -2.884573 -3.358613 0.817706
O -4.000380 -3.753469 1.568435
C -1.918933 -4.554460 0.502114
C -0.686591 -3.862449 -0.195066
C 0.412510 -4.883336 -0.485724
O -1.209470 -3.298454 -1.383840
C -0.223660 -2.613094 0.650417
O 1.135984 -2.185160 0.583309
C 1.535718 -1.608168 -0.652968
O 1.729971 -0.218753 -0.445817
C 1.910873 0.472982 -1.677405
C 2.158787 1.951822 -1.350018
O 3.339032 2.088343 -0.564067
C 3.843314 3.327259 -0.158874
O 3.200335 4.383900 -0.408991
C 5.138624 3.393113 0.551905
C 5.848116 2.212974 0.842923
C 7.080969 2.272244 1.498521
C 7.619931 3.506753 1.868160
C 6.922749 4.684561 1.587996
C 5.688250 4.631746 0.933566
C 3.030607 -0.175962 -2.558203
O 3.859449 0.771778 -3.191172
C 3.839738 -1.194845 -1.726588
O 4.843904 -1.805722 -2.497726
C 2.880502 -2.250378 -1.123720
O 3.521417 -2.956669 -0.088925
C -0.751540 -2.661041 2.090936
C -2.103109 -2.207034 1.520462
C -4.189397 3.839461 0.340654
C -5.484999 4.360908 0.358493
C -6.591231 3.504284 0.424949
O -7.883564 4.026164 0.438885
H -8.530324 -0.529377 0.624111
H -6.948362 -0.470152 1.489427
H -6.999648 -0.530948 -0.327470
H -4.941910 0.523781 0.492558
H -0.703071 0.184889 -0.630291
H -0.535014 0.171499 1.175601
H -2.257946 -1.513271 -1.721017
H -4.510008 -4.392449 1.004785
H -1.644469 -5.139634 1.404542
H -2.413441 -5.258614 -0.203802
H -0.014144 -5.765125 -1.008296
H 0.882284 -5.220364 0.461228
H 1.183097 -4.454563 -1.144759
H 0.778021 -1.773926 -1.454636
H 0.959142 0.444081 -2.257246
H 2.252654 2.542234 -2.287850
H 1.290486 2.349039 -0.778493
H 5.452959 1.243788 0.563878
H 7.620220 1.360133 1.717906
H 8.576979 3.550915 2.372498
H 7.339821 5.640433 1.878496
H 5.168768 5.558690 0.721821
H 2.520868 -0.743460 -3.369427
H 4.559114 1.057536 -2.545315
H 4.337208 -0.646151 -0.895936
H 4.406816 -2.229646 -3.280576
H 2.641921 -2.978301 -1.927286
H 3.720953 -2.308415 0.635525
H -0.720920 -3.638203 2.611878
H -0.300851 -1.863155 2.722727
H -2.692950 -1.478715 2.118314
H -3.350695 4.522241 0.283578
H -5.630843 5.432848 0.315760
H -8.053961 5.024667 0.405796
