57

C 2.940935 1.145938 2.446402
C 3.082393 1.926951 1.368769
C 2.162964 1.858262 0.161711
C 0.714478 2.224137 0.567314
N -0.255328 1.881908 -0.495695
C -1.570197 2.532808 -0.198089
C -2.791119 1.836764 -0.823621
C -2.733383 0.400127 -0.449029
C -1.537234 -0.266669 -0.401330
N -1.727060 -1.594667 -0.220625
C -3.062533 -1.752185 -0.132436
C -3.755326 -2.950653 0.019716
C -5.159449 -2.903274 0.026832
C -5.838211 -1.675508 -0.132177
C -5.116442 -0.468254 -0.299596
O -5.742872 0.773044 -0.479385
C -7.153319 0.960588 -0.513450
C -3.720456 -0.551310 -0.282279
C -0.272098 0.416370 -0.840403
C 0.990474 -0.343373 -0.371575
C 2.235313 0.518503 -0.637031
C 3.576712 -0.212547 -0.505300
C 4.599165 0.215568 -1.269063
O 5.858900 -0.383772 -1.210628
C 6.935550 0.070453 -2.017976
C 3.803736 -1.277884 0.512451
O 4.934379 -1.392724 1.062445
O 2.773362 -2.151764 0.868739
C 2.923464 -3.154611 1.865737
H 2.155200 0.401402 2.506877
H 3.629552 1.243503 3.279064
H 3.891341 2.651763 1.359163
H 2.510430 2.656927 -0.532422
H 0.422466 1.703835 1.506975
H 0.684242 3.318375 0.774072
H -1.747855 2.577316 0.902097
H -1.538926 3.580961 -0.565355
H -2.759754 1.932998 -1.929928
H -3.719550 2.307863 -0.439899
H -1.005119 -2.349067 -0.216459
H -3.229826 -3.891165 0.123500
H -5.725516 -3.817931 0.146361
H -6.919548 -1.679261 -0.130014
H -7.604142 0.640901 0.449735
H -7.371995 2.036887 -0.668619
H -7.594925 0.382872 -1.352741
H -0.274892 0.357296 -1.951191
H 1.071950 -1.298573 -0.935894
H 0.898542 -0.570810 0.711729
H 2.146683 0.794859 -1.715090
H 4.447886 1.039620 -1.958547
H 7.834033 -0.545375 -1.808357
H 6.672230 -0.028421 -3.092411
H 7.162822 1.132298 -1.784756
H 3.172419 -2.685355 2.841112
H 3.725929 -3.864553 1.573579
H 1.969527 -3.711392 1.967863
