76

C -9.308853 -1.327990 2.673682
O -8.283652 -0.703481 1.910274
C -7.503950 -1.399942 0.980352
O -7.677118 -2.638793 0.811261
C -6.469987 -0.670971 0.207819
C -5.693656 -1.324343 -0.670776
O -4.636676 -0.676896 -1.308129
C -4.055159 0.500378 -0.756411
O -3.337320 0.170801 0.425318
C -2.029818 -0.315682 0.152904
O -1.199501 0.042786 1.242406
C 0.182923 -0.187778 0.977334
C 0.839396 1.110358 0.488068
O 2.252479 0.944831 0.413927
C 3.115964 1.975172 0.026963
O 2.657649 3.110429 -0.275179
C 4.568268 1.750639 -0.033921
C 5.117777 0.565123 0.266355
C 6.579586 0.303185 0.226289
C 7.459371 1.067209 -0.563383
C 8.839101 0.793535 -0.569771
O 9.745212 1.544032 -1.336207
C 9.385688 2.641105 -2.169718
C 9.338788 -0.261116 0.206341
O 10.711215 -0.513137 0.194895
C 8.470670 -1.053021 0.978739
O 9.009359 -2.111656 1.728527
C 8.249141 -2.995558 2.545447
C 7.093033 -0.764374 0.979165
C 0.464941 -1.384231 0.020302
O 1.728724 -1.929143 0.308763
C -0.622351 -2.454815 0.204278
O -0.410004 -3.501089 -0.708359
C -2.042129 -1.858199 0.010871
O -2.897949 -2.415992 0.977753
C -5.167191 1.497077 -0.384638
C -5.813855 2.141439 -1.574451
C -5.080163 2.887817 -2.656333
O -5.127177 2.167887 -3.857379
C -7.134591 2.160843 -1.467958
C -7.608913 1.525792 -0.211812
C -6.356967 0.842107 0.373546
H -9.811968 -0.563193 3.299588
H -8.868785 -2.104923 3.331527
H -10.060035 -1.788964 1.997271
H -5.860688 -2.370749 -0.891487
H -3.404702 0.975492 -1.522827
H -1.610354 0.133762 -0.780284
H 0.644527 -0.433962 1.959197
H 0.442175 1.393058 -0.509879
H 0.603700 1.927124 1.204289
H 5.188251 2.593381 -0.309259
H 4.475574 -0.243017 0.598215
H 7.073649 1.857813 -1.189424
H 8.695750 2.300790 -2.972435
H 10.301013 3.054457 -2.641577
H 8.910125 3.442378 -1.563817
H 11.129924 -1.259463 0.736943
H 8.932605 -3.729485 3.021247
H 7.729644 -2.426104 3.344970
H 7.509868 -3.547499 1.925165
H 6.413729 -1.361636 1.574203
H 0.439887 -1.028534 -1.037936
H 2.050794 -2.368085 -0.521144
H -0.523629 -2.849729 1.246030
H -0.922360 -4.280076 -0.374514
H -2.398458 -2.094303 -1.021287
H -3.638636 -2.873123 0.498248
H -4.732921 2.309557 0.240032
H -4.018504 3.033505 -2.367339
H -5.520253 3.902246 -2.790492
H -6.051084 2.269480 -4.215545
H -7.787114 2.666262 -2.173570
H -8.440835 0.822264 -0.434593
H -7.975562 2.316604 0.477353
H -6.267629 1.070332 1.460023
