57

C -5.061953 -1.054424 3.924744
O -4.220026 -1.417706 2.852028
C -4.754528 -0.955316 1.624341
C -4.203366 0.434291 1.295930
C -3.227798 0.186703 0.156789
C -1.804727 -0.097037 0.731479
C -0.730291 -0.255014 -0.358463
C -0.717344 0.942052 -1.328429
C 0.307500 0.723586 -2.457319
O 1.623400 0.556030 -1.931200
C 2.394490 1.611260 -1.427197
O 1.977980 2.799129 -1.499613
C 3.703471 1.348582 -0.809758
C 4.200260 0.108610 -0.704649
C 5.517562 -0.202968 -0.096927
C 6.135217 -1.421849 -0.421207
C 7.371565 -1.762496 0.133180
C 8.005503 -0.894666 1.030484
O 9.239655 -1.229909 1.584540
C 7.394114 0.315988 1.376901
O 8.022817 1.171812 2.279848
C 6.153481 0.659418 0.819245
C -2.120242 1.173069 -1.922002
C -3.168411 1.403121 -0.817251
O -2.854335 2.570466 -0.097064
C -3.843355 -1.087616 -0.457442
O -4.894181 -0.758905 -1.352568
C -5.215473 -1.872126 -2.157132
O -4.364898 -1.852224 0.606379
H -6.023409 -1.611245 3.875372
H -4.561678 -1.328499 4.876047
H -5.250461 0.042137 3.945837
H -5.871837 -0.925995 1.628312
H -5.044954 1.082256 0.961284
H -3.725745 0.923742 2.173633
H -1.814511 -1.016317 1.357363
H -1.497013 0.742043 1.394457
H 0.259949 -0.334291 0.140914
H -0.884484 -1.200785 -0.918914
H -0.420834 1.852406 -0.762164
H 0.293924 1.580320 -3.166615
H 0.040195 -0.189773 -3.031111
H 4.267458 2.201858 -0.458911
H 3.636430 -0.719268 -1.119202
H 5.663454 -2.108990 -1.113329
H 7.836061 -2.702851 -0.135258
H 9.705650 -2.099650 1.353631
H 7.606781 2.054821 2.552011
H 5.688254 1.585375 1.127056
H -2.099433 2.061987 -2.590009
H -2.420013 0.299351 -2.541884
H -4.161541 1.546109 -1.302506
H -3.074245 3.341155 -0.683342
H -3.054565 -1.678164 -0.973400
H -4.373641 -2.124235 -2.839010
H -5.495350 -2.755240 -1.540950
H -6.090530 -1.611667 -2.786978
