54

C 3.885071 2.027584 1.456044
O 3.659655 1.296322 0.269186
C 3.546516 -0.093804 0.538501
C 4.943273 -0.728105 0.402300
C 2.553041 -0.733497 -0.483302
C 1.303128 0.157886 -0.769552
C 0.477324 -0.626818 -1.824889
C -0.211651 -1.803244 -1.092265
C -1.609855 -1.342027 -0.731869
N -2.700975 -1.665200 -1.355211
C -3.750746 -1.038280 -0.625707
C -5.112636 -1.103741 -0.914708
C -6.005602 -0.423213 -0.068068
C -5.524616 0.302086 1.042566
C -4.146959 0.352980 1.315409
C -3.283949 -0.330716 0.460212
C -1.805178 -0.455358 0.474477
C -1.170122 -1.176420 1.637046
C 0.298345 -1.090310 1.210742
C 0.477398 0.326509 0.564206
C -0.983151 0.837177 0.386505
O -1.219275 1.555063 -0.824549
C -0.726048 2.842589 -1.056130
C -1.004458 3.510087 -2.358864
O -0.080215 3.456739 -0.163942
N 0.552267 -2.134136 0.169336
C 2.018139 -2.172018 -0.099974
O 2.689511 -2.713713 1.008695
H 4.814662 1.699062 1.968298
H 3.017757 1.951026 2.146762
H 4.008108 3.097877 1.192434
H 3.163431 -0.293868 1.567305
H 4.905372 -1.832878 0.473804
H 5.393550 -0.457097 -0.576579
H 5.612417 -0.362915 1.208244
H 3.110738 -0.822121 -1.444586
H 1.600450 1.144291 -1.185338
H 1.140511 -1.026814 -2.623829
H -0.241766 0.022633 -2.366071
H -0.266929 -2.697120 -1.751013
H -5.473560 -1.663921 -1.767339
H -7.068392 -0.456706 -0.269383
H -6.220143 0.822633 1.687852
H -3.767050 0.907711 2.163280
H -1.518339 -2.229013 1.742569
H -1.341528 -0.630842 2.592331
H 0.950484 -1.230383 2.101281
H 1.013093 1.002263 1.262510
H -1.257044 1.487352 1.249795
H -0.132972 4.126187 -2.665343
H -1.897726 4.160619 -2.257644
H -1.195853 2.746219 -3.141468
H 2.202867 -2.845888 -0.970438
H 2.379627 -3.652727 1.096369
