48

C -4.283435 0.707645 -1.362011
C -3.302128 0.687923 -0.225994
C -2.467668 -0.345556 0.027981
C -2.558468 -1.652834 -0.751522
N -1.282693 -2.409448 -0.719775
C -0.352877 -1.926309 -1.772298
C 0.279867 -0.570203 -1.386257
C 0.809019 -0.535591 0.105594
C 0.729053 -1.951568 0.646530
O 1.692189 -2.565586 1.085235
C -0.648156 -2.547207 0.639320
C -1.407068 -1.774487 1.733479
C -1.568126 -0.314561 1.259407
C -0.147492 0.368287 1.022523
C -0.306261 1.786349 0.484093
O -1.118786 2.577299 1.039416
O 0.524443 2.255855 -0.540260
C 0.439777 3.578948 -1.053349
C 0.508296 0.565397 2.379268
N 1.787834 0.744439 2.490636
C 2.692117 0.584918 1.393945
C 4.026310 0.975392 1.553617
C 4.962884 0.701678 0.557207
C 4.579866 -0.005213 -0.581894
C 3.251909 -0.408036 -0.745479
C 2.268727 -0.053324 0.206250
H -4.879902 1.643086 -1.323215
H -3.743516 0.676513 -2.331604
H -4.976960 -0.156130 -1.285509
H -3.299966 1.551923 0.429120
H -2.874565 -1.479990 -1.802275
H -3.356870 -2.278297 -0.298540
H -0.866626 -1.841109 -2.755138
H 0.453826 -2.678325 -1.917396
H 1.056658 -0.325644 -2.134043
H -0.485579 0.208120 -1.569984
H -0.600844 -3.623733 0.911465
H -0.858569 -1.816972 2.701202
H -2.400134 -2.241045 1.917842
H -2.109926 0.226001 2.069287
H 0.648772 4.313244 -0.246881
H -0.572474 3.758720 -1.473439
H 1.191771 3.705349 -1.858842
H -0.106569 0.703996 3.259887
H 4.342446 1.471170 2.462864
H 5.994740 1.001623 0.686773
H 5.319106 -0.265005 -1.328687
H 3.016045 -1.027700 -1.598550
