45

C 4.784728 -0.494514 -1.745205
C 3.262040 -0.397159 -1.651187
C 2.774686 -0.345308 -0.184034
C 3.072647 1.026452 0.500946
C 1.768655 1.650622 1.048368
C 0.792127 1.832867 -0.130335
C 0.409054 0.444269 -0.728924
C -1.085595 0.228824 -0.635764
N -1.962586 1.034227 -1.282253
C -3.188360 0.586785 -0.970125
C -4.407308 1.094492 -1.417633
C -5.583858 0.458104 -0.985085
C -5.516277 -0.661368 -0.128043
C -4.271923 -1.153116 0.306168
C -3.118493 -0.496544 -0.132732
C -1.775014 -0.739031 0.107022
C -1.198416 -1.905945 0.855747
C -0.163733 -1.488380 1.912040
N 0.980846 -0.686268 1.415284
C 1.117056 0.657529 2.039555
C 1.258844 -0.673625 -0.043113
H 5.144606 -1.416492 -1.241036
H 5.265583 0.389494 -1.276760
H 5.087990 -0.535440 -2.812585
H 2.927930 0.505535 -2.206288
H 2.829962 -1.288181 -2.156431
H 3.321490 -1.137560 0.377299
H 3.788225 0.878499 1.339388
H 3.546715 1.743772 -0.204185
H 1.975262 2.625083 1.541959
H -0.100761 2.393156 0.227285
H 1.267645 2.462319 -0.914650
H 0.645771 0.448354 -1.814159
H -1.731381 1.841855 -1.903363
H -4.448174 1.949182 -2.080436
H -6.546684 0.826776 -1.314050
H -6.428127 -1.145620 0.196397
H -4.224336 -2.011827 0.961438
H -0.771598 -2.637496 0.139793
H -2.008386 -2.447436 1.386259
H 0.248104 -2.417280 2.360175
H -0.697043 -0.969748 2.739453
H 1.750265 0.570284 2.948159
H 0.129048 1.065782 2.350513
H 1.078777 -1.665923 -0.505737
