46

C 4.135712 -0.346787 1.331988
C 3.096525 0.344464 0.498868
C 2.259933 -0.299924 -0.344405
C 2.346706 -1.800021 -0.597157
N 1.020385 -2.377312 -0.934692
C 0.244586 -2.677921 0.301422
C -0.362285 -1.397640 0.942529
C -0.931143 -0.395199 -0.116395
C -1.045962 -1.136631 -1.409672
N -2.227159 -1.229695 -1.935293
C -3.079044 -0.571451 -1.012695
C -4.460581 -0.425895 -1.122434
C -5.141284 0.246407 -0.093618
C -4.434264 0.751122 1.016743
C -3.041068 0.590527 1.105006
C -2.384013 -0.073745 0.066729
C 0.236543 -1.632801 -1.989673
C 0.953835 -0.344564 -2.450161
C 1.285537 0.496979 -1.193797
C -0.035030 0.864587 -0.421504
C 0.227295 1.785623 0.748031
O 0.048609 1.407170 1.937439
O 0.693519 3.077880 0.488173
C 1.002955 4.003536 1.522554
H 4.719852 0.407317 1.899763
H 3.648208 -1.031220 2.057611
H 4.832021 -0.916348 0.681060
H 3.035209 1.425676 0.584715
H 2.791082 -2.340094 0.265271
H 3.041895 -1.975661 -1.445320
H 0.867625 -3.217585 1.048038
H -0.581561 -3.375628 0.040427
H -1.162501 -1.712469 1.647599
H 0.424859 -0.928368 1.562813
H -4.995425 -0.822431 -1.975538
H -6.214394 0.373717 -0.151998
H -4.967721 1.262697 1.807245
H -2.499636 0.967389 1.960809
H 0.041991 -2.299620 -2.856449
H 0.309041 0.239606 -3.145460
H 1.879732 -0.595785 -3.012758
H 1.779557 1.431564 -1.543595
H -0.619717 1.492756 -1.133328
H 1.352522 4.953471 1.068934
H 1.808840 3.595033 2.168559
H 0.098215 4.207275 2.133616
