49

C -1.572802 3.320614 -2.482772
O -1.093074 2.391033 -1.519822
C -1.940390 1.712068 -0.635138
O -3.188199 1.894171 -0.700004
C -1.366767 0.683436 0.327656
C -2.186598 0.733773 1.700144
O -1.952785 -0.312215 2.663738
C -2.541700 -1.591315 2.337782
C -1.554019 -2.545214 1.534754
C -0.679312 -1.668481 0.633618
C 0.801893 -1.557928 0.171175
C 1.143822 -0.057450 0.335612
C 0.155280 0.942163 0.491782
N 0.732441 2.130335 0.784875
C 2.060986 1.893373 0.807700
C 3.072875 2.812307 1.082384
C 4.401898 2.349062 1.084934
C 4.689122 0.990672 0.821871
C 3.650932 0.081242 0.550461
C 2.347420 0.571437 0.543402
N 0.972994 -1.951552 -1.242273
C 0.714589 -3.386954 -1.445067
C 0.185125 -1.104070 -2.165579
C -1.292228 -0.987133 -1.763553
C -1.555062 -0.744132 -0.249395
H -2.269344 2.814664 -3.184374
H -0.714448 3.725005 -3.057251
H -2.093718 4.159430 -1.974495
H -3.279209 0.788687 1.497602
H -1.940926 1.697043 2.195263
H -2.796531 -2.100289 3.290641
H -3.511438 -1.477864 1.805228
H -0.933660 -3.149321 2.239134
H -2.139313 -3.255888 0.912967
H -0.341441 -1.207307 1.577293
H 1.475398 -2.166803 0.819634
H 0.249995 3.040251 0.958159
H 2.844616 3.849267 1.292183
H 5.209743 3.037920 1.294714
H 5.715129 0.646665 0.831483
H 3.860290 -0.961842 0.351194
H -0.341327 -3.649767 -1.221672
H 1.379112 -3.989302 -0.789419
H 0.942711 -3.671176 -2.494381
H 0.632424 -0.088348 -2.215302
H 0.250150 -1.501880 -3.202416
H -1.778972 -0.205873 -2.383453
H -1.790152 -1.940478 -2.046746
H -2.635532 -0.992034 -0.164271
