122

C -4.399217 0.704067 -3.883881
C -3.502742 1.115526 -2.988571
C -2.902067 0.238535 -1.894078
C -3.923809 -0.490304 -0.998527
O -5.045153 0.342810 -0.772223
C -5.557095 0.202318 0.542298
O -6.959241 0.009386 0.478864
C -7.664827 1.226467 0.288320
C -9.123657 0.857247 -0.002848
O -9.937371 2.012952 -0.074951
C -7.551397 2.144074 1.553954
O -7.511345 3.497198 1.174517
C -6.279564 1.808798 2.360549
O -5.888705 2.899679 3.155528
C -5.146295 1.432070 1.396971
O -3.943718 1.197601 2.094688
O -4.359268 -1.726670 -1.566084
C -3.744839 -2.353340 -2.661886
C -2.596982 -1.881240 -3.174266
C -2.211093 -2.315089 -4.529927
O -1.041754 -2.708300 -4.775925
O -3.130183 -2.201513 -5.564547
C -2.956580 -1.248302 -6.595769
C -1.864706 -0.785772 -2.412125
C -0.682424 -0.148879 -3.199494
C 0.084213 0.984971 -2.464878
N 0.142807 0.780954 -1.003735
C -0.036351 2.091711 -0.287548
C 0.025084 1.989444 1.269870
C 0.257235 0.579549 1.728514
C 0.894789 -0.354850 0.936244
N 0.561610 -1.617346 1.322749
C -0.208463 -1.460989 2.414657
C -0.853661 -2.469629 3.132454
C -1.724903 -2.085697 4.168673
C -1.945917 -0.717028 4.448591
C -1.303945 0.277304 3.689055
C -0.420471 -0.130621 2.694385
C 1.342000 0.086305 -0.435568
C 2.006638 -1.056298 -1.272987
C 3.546035 -1.117303 -1.053818
C 4.297577 -2.143075 -1.902871
C 3.772288 -2.605587 -3.202179
O 4.486956 -2.511947 -4.237167
O 2.510827 -3.209120 -3.265048
C 2.005986 -3.800322 -4.455143
C 5.524137 -2.548891 -1.523714
O 6.083214 -2.153993 -0.297177
C 5.547279 -1.087375 0.465930
O 6.028107 -1.139798 1.804736
C 6.068832 0.166652 2.375587
O 7.413549 0.599083 2.445418
C 7.550266 1.930978 2.925617
C 8.137778 2.785604 1.786257
O 8.461941 4.082550 2.216428
C 6.267204 2.585702 3.536538
O 6.631150 3.705733 4.308834
C 5.455775 1.572018 4.390167
O 5.928015 1.552671 5.713907
C 5.466885 0.135028 3.782990
O 6.207793 -0.764427 4.577602
C 4.006306 -1.170468 0.433315
C 3.500411 -2.353221 1.255128
C 3.429978 -3.624996 0.836720
H -4.813837 -0.294017 -3.877679
H -4.760913 1.392237 -4.647619
H -3.178231 2.151457 -3.040652
H -2.387833 0.941395 -1.213819
H -3.365469 -0.729274 -0.065484
H -5.186422 -0.714922 1.068333
H -7.274108 1.760894 -0.605510
H -9.492321 0.145708 0.782594
H -9.167025 0.328458 -0.980694
H -10.815658 1.761369 0.316786
H -8.418906 1.974957 2.231215
H -8.415622 3.716864 0.822455
H -6.491789 0.933697 3.017964
H -6.528325 2.931382 3.912352
H -4.967175 2.293278 0.715810
H -4.122379 0.479793 2.760790
H -4.256262 -3.175806 -3.133961
H -2.062963 -1.505136 -7.199437
H -2.843339 -0.234748 -6.162504
H -3.851616 -1.261407 -7.262901
H -1.408931 -1.284642 -1.520734
H 0.047170 -0.940433 -3.453823
H -1.064686 0.262117 -4.159530
H 1.096628 1.126500 -2.890255
H -0.454785 1.928973 -2.713828
H 0.751996 2.809513 -0.624863
H -1.013158 2.557080 -0.556686
H 0.885438 2.606401 1.634766
H -0.911445 2.391912 1.718825
H 0.751166 -2.521328 0.848055
H -0.703199 -3.514797 2.893517
H -2.235906 -2.845736 4.752737
H -2.632295 -0.433622 5.236203
H -1.490870 1.324572 3.875558
H 2.132245 0.860784 -0.300584
H 1.894474 -0.845046 -2.345867
H 1.539698 -2.037242 -1.096589
H 3.905484 -0.137212 -1.443836
H 2.723120 -4.570258 -4.832369
H 1.044344 -4.311091 -4.238671
H 1.849713 -3.021947 -5.237062
H 6.085395 -3.237854 -2.141333
H 5.867496 -0.156465 -0.063640
H 5.456392 0.901732 1.783811
H 8.310336 1.898476 3.733182
H 9.046946 2.293913 1.377956
H 7.399503 2.868245 0.958898
H 9.204733 3.988146 2.868860
H 5.619619 2.942248 2.699594
H 5.805724 4.254951 4.410569
H 4.396885 1.914238 4.388243
H 5.550632 2.354740 6.167151
H 4.409363 -0.240564 3.702553
H 5.672601 -0.939325 5.394170
H 3.627101 -0.266729 0.948949
H 3.241560 -2.157554 2.293591
H 3.101843 -4.403869 1.526307
H 3.672940 -3.927601 -0.174232
