42

C -2.160190 2.877202 1.837579
C -2.709648 2.048310 0.708108
O -3.918412 2.061919 0.522614
C -1.784643 1.210983 -0.182853
C -0.779746 2.197492 -0.799381
C 0.549297 2.043741 -0.747892
N 1.105489 0.906480 -0.093686
C 0.359961 -0.010208 0.535859
C 1.087949 -1.128024 0.865281
C 2.370084 -0.869236 0.415470
C 3.506056 -1.674934 0.379528
C 4.658515 -1.155757 -0.237467
C 4.642435 0.130482 -0.821925
C 3.473066 0.912752 -0.799048
C 2.348536 0.386228 -0.160304
C 0.449945 -2.430464 1.247417
C -1.100335 -2.296001 1.358756
N -1.690887 -1.281120 0.439294
C -1.602919 -1.720859 -0.977843
C -1.820325 -0.577036 -1.984043
C -2.595452 0.571526 -1.347223
C -1.117512 0.067214 0.693650
H -2.609196 2.542900 2.796177
H -1.056584 2.780517 1.910957
H -2.411850 3.945355 1.670588
H -1.169104 3.059149 -1.329721
H 1.193532 2.766006 -1.232243
H 3.502797 -2.669101 0.807494
H 5.560992 -1.751744 -0.275875
H 5.533118 0.511822 -1.304051
H 3.452283 1.886608 -1.269395
H 0.698910 -3.189929 0.475907
H 0.870049 -2.778138 2.214849
H -1.358274 -2.022240 2.405370
H -1.569045 -3.288048 1.177459
H -0.623905 -2.194817 -1.204567
H -2.385129 -2.492127 -1.148108
H -2.378439 -0.957959 -2.866823
H -0.837739 -0.204099 -2.347960
H -2.844130 1.329774 -2.122969
H -3.559985 0.155343 -0.978852
H -1.279563 0.300037 1.769874
