62

C -1.840745 -3.194903 -1.699731
C -0.492235 -2.720573 -1.161102
C 0.173250 -3.807720 -0.239840
C 1.476501 -3.100915 0.275091
O 2.176601 -3.882488 1.204118
O 2.266471 -2.866892 -0.873096
C 1.525501 -1.884585 -1.580144
O 0.422231 -2.505585 -2.219420
C 0.927522 -0.981455 -0.517990
C 1.296915 0.510881 -0.575154
O 2.705916 0.658899 -0.435425
C 3.342019 1.904085 -0.439825
O 2.662815 2.960335 -0.567962
C 4.811881 1.977145 -0.292822
C 5.569581 0.799783 -0.153482
C 6.959523 0.865491 -0.015129
C 7.606413 2.103284 -0.014333
C 6.864515 3.278726 -0.151496
C 5.474231 3.219261 -0.290211
C 1.148772 -1.672619 0.819387
C -0.342849 -1.474815 1.133429
C -0.551301 -1.341012 -0.403797
O -1.392996 -0.366136 -1.025392
C -2.296914 0.312232 -0.170557
O -2.795405 1.431876 -0.888105
C -3.649401 2.258396 -0.103748
C -2.867084 3.038222 0.982788
O -3.572010 4.183573 1.381794
C -4.882795 1.480181 0.424414
O -5.623348 2.286203 1.305732
C -4.467777 0.172163 1.120922
O -5.607664 -0.609893 1.369162
C -3.465526 -0.611757 0.254051
O -4.103748 -1.196069 -0.857418
H -2.549848 -3.359016 -0.861626
H -2.262001 -2.446426 -2.403105
H -1.714490 -4.152256 -2.248552
H -0.490817 -4.147977 0.581523
H 0.442141 -4.706593 -0.837710
H 1.591012 -3.970125 2.000645
H 2.164773 -1.350045 -2.314366
H 0.783988 1.065865 0.240316
H 0.973916 0.932045 -1.551747
H 5.090416 -0.171346 -0.151367
H 7.535465 -0.044724 0.091321
H 8.682388 2.151603 0.092666
H 7.366890 4.237459 -0.150399
H 4.919649 4.143355 -0.394902
H 1.894854 -1.197638 1.493628
H -0.855052 -2.318568 1.635663
H -0.445544 -0.549819 1.734422
H -1.760878 0.693174 0.715698
H -4.049106 3.025130 -0.803513
H -1.866075 3.329484 0.588907
H -2.698988 2.407090 1.879079
H -3.439909 4.863009 0.670032
H -5.518029 1.229899 -0.458179
H -6.536145 1.898365 1.357017
H -3.979099 0.428111 2.090273
H -5.344305 -1.296651 2.036421
H -3.063711 -1.436621 0.877699
H -4.330355 -0.480102 -1.504555
