39

C -2.834922 3.203458 -0.780880
C -3.531380 2.643481 0.206465
C -3.765151 1.183857 0.277503
C -5.092347 0.747255 0.375572
N -5.384744 -0.576786 0.387256
C -4.418861 -1.526023 0.319148
C -3.063464 -1.157880 0.253749
C -2.041974 -2.129163 0.212504
O -2.350861 -3.354559 0.228363
N -0.720792 -1.754352 0.166608
C -0.379865 -0.419825 0.227260
C -1.370054 0.569178 0.273045
C -2.727021 0.214329 0.253294
C 1.046296 -0.053333 0.183860
N 1.600669 1.172448 0.348939
C 2.919601 0.988822 0.137445
C 3.921481 1.958039 0.160911
C 5.237473 1.551364 -0.128705
C 5.519663 0.201703 -0.439091
C 4.489567 -0.756431 -0.460213
C 3.199380 -0.325361 -0.158321
C 1.999045 -0.996865 -0.108862
C 1.649743 -2.394919 -0.483053
C 0.336676 -2.804413 0.218834
H -2.374228 2.600980 -1.553933
H -2.736243 4.279938 -0.830348
H -4.048083 3.288217 0.906976
H -5.903263 1.463981 0.417016
H -4.715096 -2.567158 0.329070
H -1.076431 1.605395 0.332753
H 1.124195 2.073842 0.572079
H 3.695166 2.991632 0.388661
H 6.038418 2.279063 -0.118892
H 6.535084 -0.096824 -0.664807
H 4.695440 -1.791186 -0.701456
H 2.466926 -3.086661 -0.186792
H 1.514858 -2.446949 -1.584609
H -0.009929 -3.744912 -0.262171
H 0.555029 -3.033384 1.284822
