56

C -2.641797 1.392671 -1.852768
C -2.897346 0.051631 -1.140136
C -2.169821 -0.269014 0.240610
C -1.800036 1.048816 0.965731
C -0.617974 1.764174 0.320084
C -0.473917 3.214442 0.572018
O -1.004178 3.728140 1.594512
O 0.209061 4.019719 -0.345446
C 0.374531 5.419800 -0.161842
C 0.347323 1.066470 -0.336281
N 1.716579 1.490009 -0.287482
C 2.457429 0.305533 -0.056525
C 3.806245 0.238947 0.290797
C 4.374135 -1.027816 0.559639
O 5.722713 -1.184484 0.911298
C 6.649734 -0.110753 1.033584
C 3.567055 -2.181250 0.477270
C 2.208805 -2.085389 0.137514
C 1.667730 -0.819789 -0.109625
C 0.278724 -0.441411 -0.564056
C 0.092320 -0.945502 -2.009674
C -0.626019 -2.300825 -1.857982
N -1.017915 -2.409650 -0.448349
C -2.161379 -3.261346 -0.064221
C -3.413148 -2.522138 0.486564
Cl -4.720576 -2.504864 -0.741960
C -3.130668 -1.126398 1.119146
O -4.330810 -0.436683 1.370243
C -0.847207 -1.116944 0.197794
H -1.584523 1.557273 -2.118234
H -3.219109 1.410137 -2.801390
H -3.001434 2.244259 -1.238823
H -2.760538 -0.761370 -1.866789
H -3.992365 0.082644 -0.968682
H -1.520557 0.834916 2.021141
H -2.685752 1.719590 1.006477
H 0.947182 5.833691 -1.016784
H 0.935945 5.615791 0.776059
H -0.617432 5.917269 -0.117507
H 2.072390 2.441065 -0.049491
H 4.387130 1.148722 0.352552
H 6.313588 0.596133 1.821317
H 7.640847 -0.517753 1.320495
H 6.750252 0.418972 0.062658
H 3.997858 -3.154385 0.676356
H 1.600440 -2.976868 0.067663
H 1.057693 -1.069107 -2.550404
H -0.523957 -0.261959 -2.617343
H 0.079110 -3.125735 -2.095458
H -1.494658 -2.388662 -2.543740
H -2.443782 -3.930919 -0.905900
H -1.797071 -3.940316 0.736517
H -3.829046 -3.156603 1.300536
H -2.634117 -1.309194 2.103047
H -4.800734 -0.927052 2.095111
H -0.496949 -1.296634 1.241816
