69

C -11.125774 2.139868 -1.600626
O -10.406491 0.919266 -1.739961
C -9.014782 0.797795 -1.602888
C -8.190131 1.898851 -1.304498
C -6.808995 1.733526 -1.170105
C -6.224158 0.463807 -1.328511
C -4.762271 0.246925 -1.212430
C -3.956744 1.023757 -0.473675
C -2.509522 0.777393 -0.370566
O -1.957260 -0.116571 -1.069720
O -1.750817 1.563552 0.503587
C -0.345833 1.391677 0.693011
C -0.040839 0.157647 1.562625
O 1.319591 -0.206240 1.336202
C 1.971374 -0.862862 2.418615
O 2.984125 -1.687298 1.865862
C 4.174972 -1.651132 2.628385
C 4.987719 -0.423091 2.320927
C 5.417057 -0.122719 1.087369
C 5.160421 -0.889581 -0.172330
C 5.879082 -0.059686 -1.277140
C 6.902967 -0.866652 -2.045485
C 7.561037 -0.396632 -3.128012
C 7.319809 0.996068 -3.663311
C 8.559571 -1.294250 -3.811858
O 6.516115 1.024847 -0.603122
C 6.239119 1.010677 0.744906
O 6.679277 1.868954 1.555526
C 1.019702 -1.738184 3.261595
O 0.471356 -2.739165 2.438546
C -0.086244 -0.855199 3.896231
O -1.254660 -1.602349 4.143649
C -0.369866 0.418130 3.057251
O -1.711684 0.808654 3.218645
C -7.047480 -0.628486 -1.645950
C -8.433961 -0.466075 -1.774411
O -9.244113 -1.560755 -2.074287
H -10.976981 2.557970 -0.582141
H -12.207419 1.941763 -1.748763
H -10.789503 2.869573 -2.367490
H -8.605612 2.889197 -1.180490
H -6.202766 2.606551 -0.969107
H -4.345168 -0.619839 -1.714311
H -4.360543 1.846673 0.101285
H 0.149678 1.295749 -0.298185
H 0.067414 2.302488 1.176148
H -0.678137 -0.678354 1.201347
H 2.392902 -0.064079 3.077612
H 3.970349 -1.714092 3.721639
H 4.780992 -2.546014 2.373613
H 5.241347 0.233917 3.143427
H 4.070306 -0.930661 -0.379685
H 5.560249 -1.920958 -0.069060
H 5.113073 0.343140 -1.977026
H 7.121546 -1.878381 -1.711816
H 7.930726 1.195739 -4.568071
H 7.591970 1.750539 -2.895249
H 6.252219 1.120955 -3.942435
H 9.358979 -1.582728 -3.096221
H 9.035417 -0.792203 -4.680289
H 8.051138 -2.211047 -4.176703
H 1.611468 -2.211490 4.081515
H 0.239919 -3.504557 3.027609
H 0.288045 -0.509082 4.885564
H -1.685202 -1.791591 3.267891
H 0.308298 1.226572 3.424500
H -1.736004 1.800774 3.188382
H -6.614023 -1.612588 -1.783532
H -8.856346 -2.488403 -2.204101
