53

C 0.971471 -1.652406 -3.128742
O 0.507448 -1.575479 -1.786980
C 0.168655 -0.363997 -1.173942
O 0.315987 0.717097 -1.809491
C -0.229301 -0.330831 0.299234
C -0.863838 -1.712188 0.748281
C -2.290760 -1.522390 1.305066
C -3.161697 -0.921533 0.185846
C -2.683702 0.521451 -0.137377
C -2.734229 0.846282 -1.654049
C -4.178319 0.837113 -2.175636
O -2.180370 2.116670 -1.883019
C -1.311858 0.785675 0.582331
N -1.605227 0.774464 2.041132
C -0.428459 1.147907 2.851293
C 0.765017 0.203058 2.631949
C 1.070714 0.014578 1.132753
N 1.708043 1.246954 0.622785
C 3.019599 0.946997 0.163673
C 3.926606 1.838408 -0.408685
C 5.180826 1.343948 -0.808526
C 5.499015 -0.018905 -0.628715
C 4.564678 -0.894200 -0.048170
C 3.330246 -0.371892 0.335575
C 2.183067 -1.010642 0.948071
O 2.148672 -2.218591 1.303809
C -2.225970 -0.512509 2.475481
H 1.165752 -2.713516 -3.386667
H 0.202329 -1.247736 -3.820267
H 1.915331 -1.076887 -3.236776
H -0.269263 -2.213430 1.535523
H -0.919704 -2.445438 -0.083353
H -2.711282 -2.493832 1.645502
H -4.225238 -0.902294 0.510986
H -3.104929 -1.578122 -0.710474
H -3.407727 1.219972 0.343846
H -2.171960 0.072856 -2.222135
H -4.639466 -0.164313 -2.047136
H -4.791871 1.591355 -1.638139
H -4.188643 1.081503 -3.259055
H -1.948850 2.161393 -2.847663
H -0.943661 1.792800 0.292508
H -0.129147 2.189045 2.602762
H -0.700329 1.152705 3.929509
H 0.567047 -0.774475 3.117677
H 1.655128 0.629232 3.145559
H 1.292792 2.204774 0.623102
H 3.671846 2.881435 -0.543665
H 5.904939 2.011846 -1.256538
H 6.466229 -0.392200 -0.939006
H 4.797090 -1.941513 0.094223
H -1.695160 -0.977526 3.334705
H -3.257568 -0.302675 2.831026
