52

C 2.785930 -3.162364 -0.062421
C 1.392075 -3.081557 0.485813
C 0.400823 -2.278597 0.025693
C -1.013088 -2.623613 0.488402
N -2.009153 -1.549463 0.227786
C -2.078682 -0.558607 1.345312
O -2.212026 -1.188999 2.609059
C -3.525614 -1.678000 2.774652
C -0.811967 0.335972 1.341111
C -0.440369 0.862030 -0.097293
C -1.598726 0.537564 -0.992530
N -2.260572 1.535854 -1.488724
C -1.591765 2.686950 -1.001011
C -1.925193 4.012275 -1.272531
C -1.142986 5.025737 -0.694327
C -0.054527 4.697100 0.138909
C 0.261230 3.352847 0.398773
C -0.525803 2.361121 -0.191802
C -1.924287 -0.910804 -1.137149
C -0.759950 -1.475043 -1.978685
C 0.557408 -1.323950 -1.164779
C 0.849322 0.201151 -0.770082
C 1.217949 0.975794 -2.049079
O 0.426961 1.128541 -2.965972
C 2.099899 0.306652 0.104104
O 2.046599 0.739977 1.287079
O 3.348102 0.009699 -0.457989
C 4.575255 0.264367 0.216444
H 2.783985 -3.273702 -1.165515
H 3.372422 -2.285398 0.250142
H 3.290166 -4.056376 0.360687
H 1.154515 -3.808349 1.259255
H -1.339850 -3.536755 -0.053941
H -1.003899 -2.917841 1.559406
H -2.949460 0.121676 1.173586
H -3.805323 -2.385713 1.963158
H -4.257120 -0.842074 2.830100
H -3.577198 -2.232552 3.733854
H 0.003194 -0.266049 1.783013
H -0.981874 1.185313 2.039079
H -2.764197 4.254711 -1.911551
H -1.378776 6.064042 -0.887946
H 0.540204 5.484642 0.583026
H 1.090604 3.101514 1.043606
H -2.887257 -1.043245 -1.674873
H -0.701494 -0.971302 -2.964435
H -0.949910 -2.544883 -2.219138
H 1.373096 -1.678587 -1.828180
H 2.194959 1.438780 -2.158195
H 4.607519 -0.292233 1.176946
H 5.417945 -0.070786 -0.422133
H 4.680908 1.352533 0.411286
