66

C 0.450249 8.174227 -0.417901
O 0.752574 6.783922 -0.448387
C -0.234183 5.794636 -0.375930
O -1.447426 6.122027 -0.271728
C 0.147961 4.365652 -0.435284
C 1.398769 4.000725 -0.793895
O 1.766059 2.637862 -0.901335
C 0.876285 1.536101 -0.617562
O 1.602279 0.486238 -0.011996
C 2.437512 -0.174637 -0.953939
O 1.861529 -1.434015 -1.292731
C 2.178227 -2.433446 -0.339522
C 1.263022 -3.643820 -0.577348
O 1.561874 -4.687375 0.313834
C 3.679234 -2.822814 -0.461697
O 4.145358 -3.406571 0.732375
C 4.533282 -1.596411 -0.884867
O 5.877963 -1.718394 -0.486192
C 3.898262 -0.272920 -0.412005
O 3.916306 -0.203779 0.993667
C -0.198712 2.044211 0.344306
C -1.378759 1.198127 0.677297
C -1.321629 -0.201652 1.132272
N -0.310686 -0.608435 1.958229
C -0.232548 -1.884381 2.451611
C -1.204699 -2.840226 2.113672
C -2.226502 -2.429021 1.264586
C -2.295354 -1.142406 0.777473
N -3.351200 -0.984216 -0.055961
C -3.953922 -2.193202 -0.080619
C -5.088754 -2.553958 -0.806334
C -5.546733 -3.881504 -0.697965
C -4.866753 -4.811386 0.122229
C -3.721349 -4.424973 0.842737
C -3.293783 -3.104224 0.718145
C -2.442612 1.981825 0.842452
C -2.141326 3.409713 0.499863
C -0.861086 3.249433 -0.313194
H 1.393108 8.753338 -0.493835
H -0.202753 8.438533 -1.276207
H -0.055454 8.432623 0.536855
H 2.155871 4.749220 -0.992744
H 0.383303 1.192082 -1.558480
H 2.527315 0.385028 -1.918702
H 1.961272 -2.057616 0.685990
H 1.390918 -4.012168 -1.618444
H 0.196694 -3.337201 -0.464385
H 1.187923 -4.426566 1.195822
H 3.792178 -3.584635 -1.266217
H 4.036321 -2.741465 1.460958
H 4.533690 -1.565457 -1.998329
H 5.927539 -1.581323 0.494990
H 4.503082 0.567200 -0.832050
H 3.879859 0.759303 1.236982
H 0.287565 2.345569 1.303874
H 0.590585 -2.159032 3.098191
H -1.147324 -3.854050 2.486871
H -3.631250 -0.129424 -0.588408
H -5.603388 -1.837115 -1.433004
H -6.426916 -4.191522 -1.246219
H -5.228737 -5.828848 0.194787
H -3.191224 -5.131449 1.468548
H -3.388417 1.644019 1.249185
H -1.962693 3.992679 1.429266
H -2.959110 3.856205 -0.104225
H -1.178687 2.991138 -1.352547
