51

C -3.978019 -0.429102 2.224592
C -3.522932 -0.285380 0.768682
C -4.577285 0.512312 -0.052324
C -4.121512 0.621514 -1.527200
C -2.722582 -0.025053 -1.673588
C -2.920717 -1.528033 -1.360784
C -3.331749 -1.686666 0.121626
C -1.764854 0.603032 -0.583418
C -1.603189 2.122671 -0.825978
C -0.354317 -0.038556 -0.653738
O 0.494646 0.543601 0.322177
C 1.865267 0.294834 0.054739
O 2.616329 1.246929 0.794063
C 4.020997 1.127163 0.600442
C 4.471278 1.563777 -0.815533
O 3.848302 2.764668 -1.184493
C 4.545357 -0.263349 1.030044
O 5.915364 -0.373808 0.732975
C 3.758425 -1.389386 0.342852
O 4.109774 -2.624708 0.917508
C 2.240112 -1.151311 0.471472
O 1.781030 -1.455175 1.767219
O -2.279237 0.415892 0.743376
H -4.116901 0.571954 2.684918
H -4.937590 -0.985301 2.282322
H -3.211295 -0.978819 2.811278
H -5.566667 0.007445 -0.003854
H -4.690764 1.530990 0.377401
H -4.110324 1.679671 -1.860763
H -4.852846 0.104832 -2.187745
H -2.329395 0.113855 -2.703594
H -3.713539 -1.951715 -2.017135
H -2.005711 -2.113287 -1.585715
H -2.541900 -2.244551 0.668655
H -4.274364 -2.273965 0.186836
H -0.836729 2.562905 -0.153680
H -2.541181 2.667451 -0.606867
H -1.303435 2.321456 -1.875611
H -0.428112 -1.120967 -0.434369
H 0.035155 0.090157 -1.689737
H 2.074871 0.436213 -1.029308
H 4.491030 1.855249 1.297922
H 5.576250 1.691783 -0.839353
H 4.227427 0.791550 -1.572679
H 4.275256 3.480363 -0.646296
H 4.404433 -0.346779 2.134250
H 6.274497 -1.116336 1.285131
H 4.030390 -1.401405 -0.739645
H 3.728229 -3.332656 0.332082
H 1.745470 -1.856045 -0.229304
H 2.107256 -0.749915 2.382497
