78

C -5.500927 -2.074436 0.583470
O -4.205224 -1.563681 0.804288
C -3.742121 -0.898712 -0.358466
O -3.326132 -1.872800 -1.297965
C -2.114557 -1.410420 -1.846192
C -1.343773 -2.593384 -2.442040
C -2.502041 -0.377258 -2.974764
C -2.740164 0.987821 -2.345545
O -3.308055 1.882805 -2.949435
C -2.157654 1.203020 -0.959923
C -0.729616 0.649940 -1.039195
C -1.342522 -0.719127 -0.661864
O -0.700911 -1.616890 0.239071
C 0.711800 -1.510277 0.265036
O 1.261831 -1.548066 -1.043717
C 2.646121 -1.197393 -1.052739
C 2.807620 0.306636 -1.339866
O 4.187217 0.664551 -1.446117
C 4.927649 1.230364 -0.399401
O 4.350528 1.594309 0.660654
C 6.391261 1.404686 -0.538576
C 7.031754 1.113775 -1.756851
C 8.414503 1.281356 -1.887374
C 9.175978 1.730568 -0.803984
O 10.552539 1.890910 -0.950665
C 8.548339 2.013589 0.416393
C 7.164915 1.856885 0.549109
C 3.426182 -1.655985 0.216592
O 4.767096 -1.911052 -0.123946
C 2.775652 -2.928442 0.787153
O 3.433551 -3.327419 1.962268
C 1.276934 -2.688350 1.094741
O 0.548993 -3.856896 0.812057
C -2.520606 -0.000488 -0.024976
C -2.347499 0.347261 1.486746
O -3.582592 0.775660 2.060113
C -4.095475 2.075109 1.971692
O -3.391228 3.008543 1.506836
C -5.456756 2.354408 2.473698
C -6.043899 3.621943 2.299884
C -7.329458 3.879002 2.790508
C -8.037824 2.878585 3.457956
C -7.468120 1.613746 3.630156
C -6.186398 1.349334 3.136675
H -5.535164 -2.733771 -0.311776
H -6.242539 -1.250811 0.488711
H -5.794628 -2.685938 1.460756
H -4.542143 -0.256747 -0.799434
H -1.940927 -3.064302 -3.252592
H -1.144199 -3.360706 -1.664160
H -0.379836 -2.249062 -2.870284
H -1.690404 -0.280289 -3.727931
H -3.423390 -0.715005 -3.501725
H -2.240327 2.231506 -0.555959
H -0.098167 1.102052 -0.246156
H -0.234006 0.683632 -2.036372
H 0.977879 -0.562611 0.789347
H 3.092493 -1.737213 -1.919556
H 2.318406 0.530702 -2.311324
H 2.297721 0.918704 -0.566672
H 6.465576 0.765348 -2.611680
H 8.896459 1.064321 -2.832153
H 11.128514 2.226774 -0.185638
H 9.131672 2.357029 1.261465
H 6.700389 2.087401 1.501386
H 3.369649 -0.856860 0.992729
H 5.308356 -1.759163 0.696829
H 2.858569 -3.734366 0.016848
H 4.243442 -3.829227 1.686229
H 1.145684 -2.427219 2.172308
H 0.799825 -4.524710 1.503595
H -2.026244 -0.560749 2.036007
H -1.559624 1.113458 1.653803
H -5.515256 4.409213 1.783531
H -7.774499 4.857443 2.657035
H -9.029409 3.081246 3.839217
H -8.020492 0.838578 4.147991
H -5.770290 0.357612 3.277906
