51

O -0.042510 -2.221422 1.760783
C 0.357666 -1.793760 0.688511
C 1.534011 -0.834999 0.627789
C 1.188268 0.413554 1.439001
C 0.102365 1.166914 1.232422
O -0.817307 0.853421 0.230635
C -2.027938 1.583240 0.043238
O -2.588367 1.248645 -1.219387
C -3.229932 -0.014371 -1.177030
C -3.515437 -0.458930 -2.619334
O -4.072491 -1.745275 -2.651852
C -4.534875 0.068145 -0.330161
O -4.735623 -1.147795 0.346499
C -4.453391 1.209032 0.707287
O -4.864660 2.413772 0.108700
C -3.008536 1.340397 1.226214
O -2.909493 2.391750 2.152438
C 1.823900 -0.467061 -0.855300
C 3.089319 0.387743 -1.007626
C 4.317845 -0.337401 -0.427825
C 5.583866 0.529276 -0.561585
O 5.873235 0.787589 -1.909465
C 4.074940 -0.702538 1.048924
C 2.789514 -1.541236 1.231573
O 2.965853 -2.802498 0.631566
H -0.146241 -2.107717 -0.221005
H 1.835366 0.705374 2.256732
H -0.067319 2.029081 1.866647
H -1.780345 2.667133 -0.000553
H -2.542010 -0.773876 -0.733638
H -2.571641 -0.439318 -3.211018
H -4.221921 0.251349 -3.099766
H -3.333366 -2.380035 -2.460739
H -5.414465 0.276960 -0.986062
H -5.186448 -1.763937 -0.287247
H -5.133269 0.968050 1.559176
H -5.125693 3.028388 0.843376
H -2.732573 0.381804 1.727729
H -3.344563 2.079086 2.988363
H 1.954529 -1.396658 -1.453705
H 0.969300 0.078312 -1.307275
H 2.944373 1.366935 -0.500306
H 3.249637 0.588139 -2.089237
H 4.482489 -1.277594 -1.001070
H 6.450548 0.019014 -0.081996
H 5.436068 1.498394 -0.038064
H 6.244556 -0.052480 -2.286452
H 4.941667 -1.284155 1.432911
H 4.013599 0.223667 1.659684
H 2.623086 -1.682222 2.326684
H 3.554412 -3.329886 1.232755
