61

C 3.020887 2.214153 3.185432
O 2.521127 1.566707 2.022123
C 1.556324 2.139191 1.180106
O 1.104237 3.290484 1.414535
N 1.143096 1.426533 0.011860
C 2.089511 0.599759 -0.672276
C 1.616549 -0.679001 -0.938249
C 2.415214 -1.635433 -1.600217
C 3.708708 -1.256106 -2.029447
C 4.148242 0.042032 -1.735099
C 3.370067 0.941479 -1.075584
O 4.063195 2.118620 -0.887758
C 5.374366 1.940414 -1.442936
O 5.376499 0.622435 -2.000755
C 0.355719 -0.840807 -0.134018
C 0.821165 -1.539929 1.184412
C 0.191812 -2.926402 1.110618
N -1.066616 -2.674618 0.445238
C -1.890856 -3.798315 0.007900
C -3.284738 -3.230976 -0.342720
C -3.223700 -1.974186 -1.245908
C -2.112627 -0.951206 -0.849809
C -1.882153 0.078250 -1.967175
C -0.674302 0.970769 -1.608057
C -0.123115 0.668884 -0.137113
C -1.347015 0.901551 0.860193
O -1.019402 0.634945 2.202906
C -1.935159 2.311509 0.804371
O -1.349513 3.245579 0.186194
O -3.155138 2.563760 1.441443
C -4.000618 3.644677 1.059715
C -2.474225 -0.137179 0.443743
C -0.793651 -1.737437 -0.637095
H 2.196255 2.395391 3.917038
H 3.810663 1.575603 3.654779
H 3.480163 3.188451 2.894770
H 2.066056 -2.648185 -1.740347
H 4.356427 -1.966808 -2.524464
H 5.568057 2.697285 -2.222858
H 6.138200 2.011547 -0.642840
H 1.925921 -1.647886 1.286029
H 0.486944 -1.030224 2.104312
H 0.825630 -3.613165 0.504209
H 0.027378 -3.347840 2.122713
H -1.998785 -4.534291 0.836645
H -1.435577 -4.311215 -0.872306
H -3.815176 -2.975585 0.599057
H -3.872682 -4.023702 -0.848043
H -4.213503 -1.470460 -1.234269
H -3.044575 -2.323022 -2.285459
H -2.787598 0.713223 -2.094553
H -1.703121 -0.446047 -2.936783
H 0.111286 0.816740 -2.381056
H -0.943560 2.035466 -1.750967
H -0.415279 1.342015 2.538034
H -5.025429 3.442444 1.431015
H -4.051690 3.695327 -0.055657
H -3.619725 4.612448 1.465735
H -3.443704 0.371258 0.263391
H -2.679281 -0.835987 1.286017
H -0.487184 -2.262919 -1.570713
