49

C 2.952244 -1.050292 -2.897846
C 3.227167 0.290377 -2.225469
C 3.349675 0.125333 -0.736469
N 4.414020 -0.474672 -0.152163
C 4.145030 -0.510381 1.163526
C 4.937855 -1.058689 2.170881
C 4.450256 -1.014412 3.489474
C 3.192824 -0.435042 3.767898
C 2.412555 0.107546 2.730838
C 2.925525 0.056914 1.433384
C 2.399522 0.484732 0.227793
C 1.048034 1.108671 0.011716
C -0.012797 0.032202 -0.238505
N -1.349462 0.650690 -0.383651
C -1.585422 1.063914 -1.783834
C -2.918181 1.804950 -1.899448
C -4.063734 0.912425 -1.420750
C -3.794221 0.389243 0.002088
C -4.923770 -0.576020 0.426965
C -4.881926 -0.926251 1.915043
C -2.405559 -0.286269 0.056995
H 3.788812 -1.756418 -2.708883
H 2.854469 -0.902783 -3.993961
H 2.009265 -1.492180 -2.513717
H 4.178088 0.706940 -2.620809
H 2.416407 1.000795 -2.484782
H 5.261310 -0.855705 -0.629868
H 5.896561 -1.508104 1.946503
H 5.040711 -1.431114 4.295008
H 2.825408 -0.410930 4.785538
H 1.445119 0.544960 2.939288
H 1.097599 1.820984 -0.834958
H 0.765475 1.698950 0.909421
H 0.011429 -0.660310 0.634081
H 0.252440 -0.570714 -1.135524
H -1.588113 0.181657 -2.464856
H -0.784994 1.754020 -2.124641
H -2.882883 2.732107 -1.286111
H -3.092151 2.094375 -2.958278
H -4.180816 0.058337 -2.124863
H -5.007053 1.500903 -1.434340
H -3.791456 1.261658 0.694299
H -5.907005 -0.097569 0.223196
H -4.875259 -1.511876 -0.171849
H -4.004926 -1.564913 2.146554
H -5.797484 -1.493412 2.185565
H -4.844341 -0.003673 2.532332
H -2.207137 -0.584140 1.108740
H -2.399108 -1.206816 -0.571553
