38

C -6.137185 1.367083 -0.074791
C -4.946598 0.462366 -0.100088
C -3.656343 0.988177 0.032696
C -2.553206 0.123515 0.010979
C -1.257325 0.621081 0.144712
C -0.167867 -0.258847 0.116099
N -0.362520 -1.614738 -0.056996
C -1.637307 -2.121288 -0.163354
O -1.817752 -3.367250 -0.271245
C -2.752750 -1.260857 -0.144910
C -4.068814 -1.742053 -0.270241
N -5.118372 -0.879000 -0.245085
C 0.792020 -2.554956 0.021842
C 2.104725 -1.969869 -0.543629
C 2.276048 -0.571623 -0.060883
C 1.210379 0.250073 0.208729
N 1.618326 1.510825 0.492334
C 2.961477 1.474984 0.379125
C 3.851359 2.535519 0.543596
C 5.220952 2.283068 0.339657
C 5.666092 0.992713 -0.026957
C 4.746949 -0.059883 -0.190624
C 3.399424 0.218502 0.028883
H -6.193229 1.884701 0.905860
H -7.072120 0.786875 -0.226462
H -6.052167 2.122937 -0.883744
H -3.517813 2.056988 0.152246
H -1.102112 1.686489 0.256911
H -4.267095 -2.799516 -0.389148
H 0.584730 -3.491968 -0.539328
H 0.950802 -2.830686 1.087269
H 2.965040 -2.594576 -0.221681
H 2.060624 -1.961702 -1.653711
H 1.032908 2.341651 0.729886
H 3.501154 3.523305 0.813835
H 5.937988 3.084745 0.459382
H 6.721456 0.813243 -0.185523
H 5.078123 -1.050029 -0.475642
