49

O 1.334057 -1.541778 -2.720868
C 2.538947 -0.972416 -2.288587
C 2.888335 -1.494965 -0.877684
O 1.760334 -1.513796 -0.009039
C 1.349717 -0.214140 0.389980
O 0.189463 -0.360986 1.191116
C -0.592881 0.824192 1.240387
O -0.740102 1.214573 2.618052
C -1.838578 0.842757 3.424810
C -2.850698 0.116819 2.926656
C -2.729314 -0.424755 1.532778
C -4.023048 -0.696957 0.778025
C -3.666507 -0.476455 -0.716675
O -4.562416 0.432953 -1.311374
C -2.179604 0.017603 -0.760177
O -1.317973 -1.083970 -0.940389
C -1.875821 1.097357 -1.830937
O -2.081970 0.595818 -3.125568
C -1.999498 0.576262 0.657622
C 2.466146 0.482222 1.202066
O 2.743794 -0.247311 2.371610
C 3.734166 0.589189 0.340838
O 4.801971 1.087495 1.104901
C 4.105723 -0.798573 -0.215393
O 5.207446 -0.735058 -1.089070
H 1.141831 -1.142183 -3.608722
H 3.348739 -1.259409 -2.995885
H 2.458435 0.136003 -2.298471
H 3.184904 -2.557489 -1.020601
H 1.112335 0.384614 -0.519105
H -0.142945 1.689502 0.700105
H -1.875621 1.177499 4.452893
H -3.696654 -0.145700 3.549290
H -2.152168 -1.376791 1.587842
H -4.367903 -1.738723 0.957252
H -4.820849 0.003178 1.112330
H -3.762648 -1.442968 -1.257875
H -4.530298 1.278843 -0.792705
H -1.516428 -1.488750 -1.824560
H -2.476044 2.020971 -1.663854
H -0.809801 1.395894 -1.747283
H -3.024672 0.788610 -3.366437
H -2.541869 1.552259 0.712887
H 2.147016 1.517024 1.467753
H 2.053490 0.004006 3.039329
H 3.532620 1.282900 -0.508879
H 4.630407 2.056280 1.239004
H 4.411828 -1.432951 0.646254
H 5.034604 -0.018698 -1.753639
