52

C -1.704887 2.584520 -2.534783
C -2.203284 2.767060 -1.306799
C -1.775914 1.944248 -0.109597
C -0.292843 2.190596 0.240388
N 0.138531 1.169892 1.211409
C 1.343733 1.573896 1.977560
C 2.618354 1.594411 1.114057
C 2.697173 0.323124 0.341983
C 1.608981 -0.482605 0.077804
N 1.973182 -1.567250 -0.646318
C 3.294534 -1.420988 -0.865498
C 4.132407 -2.276408 -1.579329
C 5.491458 -1.926756 -1.687626
C 5.978030 -0.743774 -1.086522
C 5.111036 0.101495 -0.369961
C 3.771428 -0.271684 -0.280485
C 0.225447 -0.194050 0.606891
C -0.824456 -0.397763 -0.516113
C -2.122728 0.418281 -0.274143
C -2.958434 -0.129272 0.934945
C -4.373146 0.488704 1.021185
O -5.080173 0.290092 -0.173345
C -3.085019 -1.632586 0.909893
O -3.660231 -2.205388 -0.056956
O -2.544700 -2.382459 1.958631
C -2.585804 -3.803651 1.983958
H -0.955165 1.828076 -2.734976
H -2.051445 3.202977 -3.356181
H -2.953926 3.538891 -1.162207
H -2.338523 2.355718 0.752900
H 0.349203 2.150927 -0.667942
H -0.197128 3.212291 0.672178
H 1.191183 2.573825 2.438851
H 1.488768 0.859591 2.817872
H 2.590906 2.451751 0.408887
H 3.510374 1.697216 1.768001
H 1.361656 -2.350154 -0.968464
H 3.751241 -3.179992 -2.037191
H 6.168744 -2.568714 -2.235645
H 7.025229 -0.486312 -1.177216
H 5.474745 1.008703 0.094874
H 0.014777 -0.932827 1.410048
H -1.038489 -1.479853 -0.642638
H -0.395349 -0.071760 -1.488697
H -2.744359 0.278051 -1.187007
H -2.425076 0.141408 1.873113
H -4.928056 0.016563 1.863904
H -4.319826 1.574762 1.244460
H -5.973093 0.701496 -0.038058
H -2.094963 -4.165947 2.910357
H -2.044431 -4.214450 1.105454
H -3.639673 -4.153925 1.973708
