48

O 1.979263 4.457801 -0.842610
C 2.660535 3.408133 -0.684623
O 3.920865 3.320458 -1.269125
C 2.133294 2.275324 0.112577
C 0.984337 2.403981 0.797070
O 0.467567 1.343878 1.544725
C 0.852478 -0.003449 1.291371
O 0.258930 -0.438988 0.076713
C -1.068454 -0.889135 0.275807
O -1.883708 0.214069 0.658360
C -3.254491 -0.131558 0.606656
C -4.066302 0.913961 1.379830
O -3.805006 2.199408 0.885667
C -3.721886 -0.243897 -0.868572
O -4.750984 -1.197446 -0.949550
C -2.544631 -0.650741 -1.793285
O -1.864627 0.496362 -2.238852
C -1.551413 -1.558200 -1.049102
O -2.171357 -2.789781 -0.775742
C 2.389219 -0.075310 1.180010
C 2.822791 -1.351079 0.527490
C 2.703894 -2.709262 1.161051
O 3.964900 -3.312433 1.258479
C 3.235718 -1.154322 -0.719358
C 3.176336 0.283083 -1.104894
C 2.962629 1.006085 0.234234
H 4.294472 4.085535 -1.817936
H 0.439365 3.339272 0.796725
H 0.550546 -0.633951 2.159546
H -1.085621 -1.661054 1.082623
H -3.423322 -1.106254 1.125781
H -3.783575 0.866514 2.455425
H -5.152334 0.685205 1.291401
H -4.362201 2.819432 1.424047
H -4.113750 0.742084 -1.214740
H -5.221307 -1.042627 -1.810316
H -2.932323 -1.208695 -2.678705
H -2.419865 0.900127 -2.956239
H -0.682315 -1.738864 -1.726549
H -1.446319 -3.434787 -0.564938
H 2.845950 0.018543 2.190378
H 2.237681 -2.628115 2.168689
H 2.045251 -3.346964 0.534443
H 4.443177 -2.850498 1.996080
H 3.526682 -1.953450 -1.393988
H 4.126023 0.595873 -1.588850
H 2.320333 0.440983 -1.796866
H 3.963558 1.294745 0.629665
