45

C -5.622554 -1.377691 -0.441352
C -4.533502 -0.774139 0.447923
O -4.712067 0.642257 0.543792
C -3.671234 1.525789 0.866948
C -2.403125 1.096150 0.984138
C -1.289991 2.050660 1.153501
O -1.503559 3.205486 1.615612
N 0.033035 1.655037 0.749742
C 1.168860 2.587476 0.916920
C 2.471125 1.839423 1.236635
C 2.633180 0.711375 0.277417
C 1.575138 0.060500 -0.321855
N 2.008912 -0.955151 -1.104279
C 3.350283 -0.953319 -0.977187
C 4.256699 -1.827083 -1.575743
C 5.623858 -1.654273 -1.289640
C 6.050259 -0.625705 -0.419240
C 5.114314 0.241826 0.173225
C 3.768471 0.048226 -0.132577
C 0.138720 0.443891 -0.096436
C -0.609770 -0.717612 0.582122
C -2.097015 -0.390896 0.902896
C -3.099396 -1.117028 -0.029728
C -2.870040 -0.782964 -1.488925
O -3.015122 0.353969 -1.910284
H -5.472963 -2.473757 -0.541486
H -6.618845 -1.197417 0.014987
H -5.610986 -0.912705 -1.449587
H -4.664806 -1.202442 1.466762
H -3.905468 2.578702 0.958769
H 0.975212 3.304610 1.743478
H 1.296831 3.170982 -0.020733
H 3.332591 2.536470 1.159311
H 2.425417 1.431496 2.268935
H 1.427199 -1.610026 -1.673108
H 3.921101 -2.615130 -2.237369
H 6.353749 -2.315678 -1.737922
H 7.104304 -0.504807 -0.205887
H 5.431914 1.030800 0.842481
H -0.323033 0.651574 -1.085833
H -0.540971 -1.631619 -0.047785
H -0.086491 -0.952652 1.536755
H -2.281077 -0.791359 1.926128
H -2.952719 -2.213888 0.090611
H -2.576439 -1.569358 -2.176326
