55

C -5.239720 -1.397417 -0.184250
C -4.536665 -0.515018 -1.228461
C -5.282778 0.834530 -1.338564
C -4.894259 1.644246 -2.583145
O -5.763702 2.739008 -2.738156
C -3.044233 -0.312717 -0.866240
C -2.213073 -1.608123 -0.959297
C -0.720286 -1.361883 -0.636216
C -0.299834 -1.832322 0.781841
C -1.070235 -1.101190 1.896789
C 1.214746 -1.648048 0.982392
O 1.543053 -0.276475 0.860955
C 2.489869 0.132552 1.833118
O 3.770121 -0.448790 1.603411
C 4.283710 -0.099432 0.324500
C 5.570655 -0.898623 0.065511
O 6.459156 -0.775439 1.139474
C 4.501482 1.432817 0.202249
O 5.573552 1.891890 0.997275
C 3.193211 2.189110 0.535387
O 3.422063 3.573631 0.624416
C 2.567985 1.678929 1.845557
O 3.299504 2.161757 2.941917
H -6.337443 -1.407523 -0.348626
H -5.038582 -1.028529 0.841850
H -4.897944 -2.449602 -0.260781
H -4.602829 -1.032656 -2.206518
H -6.379805 0.638610 -1.391933
H -5.095250 1.451716 -0.431027
H -3.863048 2.036576 -2.473953
H -4.924011 1.011179 -3.490368
H -6.612582 2.368012 -3.100555
H -2.591399 0.423149 -1.558939
H -2.966321 0.115602 0.152166
H -2.293767 -1.999617 -1.996610
H -2.619564 -2.389072 -0.287539
H -0.460166 -0.287056 -0.781417
H -0.111267 -1.933535 -1.376925
H -0.519796 -2.919213 0.869287
H -0.957971 0.003672 1.807186
H -2.146076 -1.356393 1.864422
H -0.688967 -1.417077 2.891897
H 1.757976 -2.211580 0.197724
H 1.500453 -2.104244 1.958898
H 2.140247 -0.178994 2.845042
H 3.580978 -0.414277 -0.481080
H 5.307399 -1.974085 -0.070678
H 6.044090 -0.546869 -0.872121
H 7.261597 -1.289924 0.889542
H 4.747047 1.655423 -0.857977
H 5.442875 1.532746 1.904683
H 2.460284 1.995424 -0.284364
H 3.550545 3.899420 -0.310535
H 1.535435 2.082535 1.917489
H 2.953540 1.723189 3.766587
