70

C 0.145209 1.780481 1.873541
C -0.025423 2.515510 0.767264
C 0.472638 2.147934 -0.621601
C 1.894157 1.544146 -0.695569
O 1.936029 0.274151 -0.076530
C 3.270058 -0.170820 0.105001
O 3.726350 0.250324 1.376585
C 5.136330 0.087449 1.483959
C 5.539747 0.322850 2.947355
O 5.196663 1.621335 3.352324
C 5.625401 -1.316959 0.994613
O 6.214895 -1.184978 -0.277245
C 4.438573 -2.293833 0.907528
O 4.855789 -3.531571 0.391595
C 3.308289 -1.717932 0.024660
O 2.078542 -2.258828 0.444121
O 2.265044 1.408700 -2.072346
C 1.345518 1.167321 -3.103351
C 0.011874 1.186033 -2.895389
C -0.900368 1.064205 -4.057052
O -2.105481 1.410637 -3.963951
O -0.427015 0.581883 -5.272968
C -0.537955 1.328241 -1.476459
C -0.850197 -0.074935 -0.875116
C -2.208573 -0.699719 -1.292752
N -2.144569 -2.170151 -1.179004
C -2.087125 -2.621445 0.220398
C -3.340857 -2.212480 1.005254
C -3.841755 -0.834401 0.657101
C -4.897789 -0.293309 1.408098
C -5.490809 0.928631 1.041297
O -6.556190 1.493938 1.761895
C -7.175269 0.886550 2.891724
C -5.020609 1.604731 -0.089376
O -5.602058 2.818327 -0.453573
C -3.978224 1.063742 -0.851590
C -3.368542 -0.145980 -0.480523
H -0.248527 2.138187 2.818858
H 0.660069 0.828495 1.870374
H -0.563807 3.453283 0.865033
H 0.555115 3.133265 -1.134793
H 2.602350 2.251086 -0.200219
H 3.943091 0.218161 -0.703068
H 5.636791 0.881053 0.880719
H 5.053682 -0.432401 3.607532
H 6.640469 0.211761 3.049721
H 4.228622 1.612342 3.561839
H 6.365896 -1.741740 1.717230
H 7.080995 -1.668538 -0.257919
H 4.039745 -2.438046 1.940108
H 5.357678 -3.989213 1.115282
H 3.495782 -1.988128 -1.044874
H 1.972659 -3.128824 -0.019692
H 1.742862 1.021186 -4.098323
H -1.045985 0.477574 -6.068333
H -1.462787 1.933404 -1.510775
H -0.039200 -0.778418 -1.168925
H -0.834937 -0.019695 0.227751
H -2.390493 -0.471632 -2.362103
H -2.996592 -2.581899 -1.629068
H -1.999392 -3.730995 0.237525
H -1.176617 -2.227531 0.721757
H -3.117134 -2.263014 2.093600
H -4.153211 -2.940683 0.790396
H -5.264638 -0.842202 2.264513
H -8.003131 1.537773 3.245223
H -7.595123 -0.103084 2.607385
H -6.438907 0.768819 3.713403
H -5.288432 3.332385 -1.267746
H -3.659197 1.587491 -1.742885
