64

C -4.478068 0.512159 -0.079003
C -3.580311 -0.568738 0.550740
C -4.324153 -1.245883 1.720827
C -2.324725 0.102161 1.061759
O -2.354966 0.730232 2.156453
C -1.088084 0.122665 0.252533
C -0.840379 -0.879629 -0.614821
O 0.392584 -0.938288 -1.284061
C 1.553591 -0.208693 -0.876111
C 2.577535 -0.223823 -2.087675
C 3.902309 -1.045323 -1.849357
C 3.989874 -1.650772 -0.419873
C 2.636721 -2.313333 -0.154634
C 2.165857 -0.943330 0.372158
C 3.654111 -0.593350 0.651286
C 4.084778 -1.050364 2.070080
C 4.191889 0.844873 0.439124
C 1.072144 1.225525 -0.561883
C -0.062239 1.227913 0.484650
C -0.716897 2.597979 0.510120
C -0.453050 3.487911 1.566612
C -1.047656 4.753168 1.590113
C -1.903419 5.145211 0.557774
C -2.162502 4.274836 -0.503572
C -1.569237 3.009786 -0.532950
C -1.823673 -2.017813 -0.845736
C -1.411251 -3.203180 0.042795
C -1.751952 -2.445576 -2.330360
C -3.256712 -1.622246 -0.497513
O -4.184867 -2.225257 -1.022417
H -4.711068 1.309623 0.659860
H -3.969941 0.980292 -0.949981
H -5.438371 0.075303 -0.428843
H -5.249626 -1.747950 1.364567
H -4.620369 -0.499833 2.489661
H -3.675276 -2.009190 2.202536
H 2.847015 0.810798 -2.390771
H 2.071947 -0.645451 -2.984295
H 3.955807 -1.875849 -2.586814
H 4.790418 -0.404051 -2.034980
H 4.878813 -2.289481 -0.225302
H 2.119506 -2.723358 -1.052335
H 2.687361 -3.085640 0.643313
H 1.507121 -1.021475 1.263908
H 5.192334 -1.035018 2.156592
H 3.744967 -2.075342 2.322059
H 3.660909 -0.362723 2.832899
H 5.292231 0.852284 0.590854
H 3.741452 1.527226 1.190820
H 4.022124 1.275260 -0.558874
H 1.885967 1.884100 -0.210684
H 0.694098 1.668571 -1.510573
H 0.397023 1.030248 1.478153
H 0.210051 3.202648 2.373756
H -0.843875 5.430712 2.409179
H -2.362874 6.124946 0.578481
H -2.821840 4.581179 -1.305325
H -1.775992 2.348896 -1.365483
H -2.099173 -4.063554 -0.106066
H -1.439278 -2.914373 1.115951
H -0.378330 -3.535494 -0.199491
H -2.437813 -3.295877 -2.535190
H -2.034932 -1.596951 -2.990479
H -0.727639 -2.779299 -2.604162
