89

C -1.076685 -1.584625 4.209107
C -1.555095 -0.689636 3.059863
C -3.032383 -1.021091 2.653844
C -3.395167 -0.356147 1.279777
O -4.301356 -1.199916 0.566707
C -5.612117 -0.849759 0.222127
O -6.087984 0.264791 0.572743
C -6.436527 -1.796087 -0.561043
C -7.764653 -1.483629 -0.899119
C -8.539226 -2.379000 -1.644926
O -9.855086 -2.034776 -1.957114
C -7.988567 -3.601609 -2.067831
O -8.768578 -4.485923 -2.815419
C -6.660057 -3.920170 -1.734031
O -6.106189 -5.131767 -2.146722
C -5.893193 -3.020738 -0.983465
C -2.112946 -0.157834 0.414733
C -1.242568 -1.414473 0.593331
C -0.602232 -0.694785 1.780306
O 0.702175 -1.181142 2.109469
C 1.827218 -0.493720 1.617393
O 2.874532 -1.443952 1.514080
C 4.072258 -0.897062 0.976892
C 3.956017 -0.582601 -0.533654
O 5.250181 -0.479512 -1.129987
C 6.044405 -1.587272 -1.447814
O 5.579718 -2.753040 -1.330320
C 7.430335 -1.387508 -1.925419
C 7.919946 -0.089414 -2.160440
C 9.236197 0.102684 -2.590347
C 10.078908 -0.995480 -2.782678
C 9.603487 -2.289721 -2.555238
C 8.284904 -2.488876 -2.130344
C 4.622228 0.277875 1.825047
O 5.180992 -0.240994 3.006365
C 3.528578 1.312029 2.177029
O 3.270476 2.139857 1.070887
C 2.223348 0.625407 2.614915
O 2.331197 0.141415 3.934945
C -1.011709 0.677488 1.158242
C -0.185626 1.475782 0.124719
O -1.022268 2.469226 -0.459980
C -0.580641 3.364379 -1.436359
O 0.624422 3.350109 -1.808795
C -1.533385 4.324451 -2.032652
C -2.886720 4.322927 -1.639546
C -3.790934 5.224381 -2.213675
C -3.355268 6.138070 -3.175267
C -2.015224 6.147339 -3.573206
C -1.106144 5.246702 -3.008083
C -1.407632 1.473394 2.359731
O -1.597365 2.718653 2.380898
O -1.569013 0.669715 3.466358
H -0.977424 -2.633426 3.857457
H -1.801611 -1.547958 5.051022
H -0.092209 -1.239028 4.586572
H -3.736488 -0.664547 3.437205
H -3.160405 -2.124120 2.592942
H -3.846981 0.642583 1.465884
H -8.208031 -0.548764 -0.578198
H -10.457010 -2.644259 -2.497096
H -8.414002 -5.374232 -3.145772
H -5.149467 -5.379655 -1.922603
H -4.870079 -3.279485 -0.739610
H -2.313373 0.118778 -0.644855
H -0.522070 -1.538241 -0.247613
H -1.763550 -2.370361 0.820748
H 1.634473 -0.111261 0.611116
H 4.827497 -1.710081 1.052698
H 3.421906 0.374665 -0.699615
H 3.371421 -1.379555 -1.044021
H 7.287055 0.777090 -2.015003
H 9.604287 1.105778 -2.767834
H 11.100038 -0.843019 -3.111948
H 10.259888 -3.137780 -2.701694
H 7.938358 -3.499094 -1.950494
H 5.427991 0.787409 1.246488
H 5.786706 0.456968 3.371367
H 3.883155 1.948143 3.022605
H 4.007652 2.803625 1.029454
H 1.422851 1.392927 2.633209
H 2.831220 -0.715185 3.922349
H 0.178541 0.812223 -0.689193
H 0.670513 1.983456 0.607342
H -3.248883 3.624367 -0.894888
H -4.830384 5.214581 -1.912703
H -4.056474 6.838348 -3.616346
H -1.682407 6.851817 -4.324375
H -0.071693 5.272880 -3.333162
