77

C -1.727346 -1.850363 2.893232
C -2.365242 -2.490144 1.660138
C -1.985282 -4.011435 1.535384
C -2.656346 -4.447791 0.183881
O -2.349068 -5.770829 -0.160126
O -4.047818 -4.294382 0.379627
C -4.207264 -2.887059 0.472417
O -3.777454 -2.453750 1.753009
C -3.215707 -2.297829 -0.510477
C -3.778041 -1.411468 -1.637593
O -4.306551 -0.212287 -1.082891
C -4.646059 0.899264 -1.858990
O -4.678243 0.807916 -3.118430
C -4.934977 2.188401 -1.196723
C -5.284550 3.323005 -1.952492
C -5.536464 4.542903 -1.318150
C -5.441916 4.643155 0.072362
C -5.093460 3.523729 0.831530
C -4.839999 2.301434 0.203268
C -2.311277 -3.434903 -0.958644
C -1.096445 -2.552690 -0.631182
C -2.041038 -1.759979 0.306751
O -2.030240 -0.339557 0.358202
C -0.747920 0.230332 0.181298
O 0.201058 -0.374640 1.044490
C 1.533754 0.025841 0.742332
C 2.184277 -0.969413 -0.237423
O 3.522118 -0.581821 -0.546167
C 4.588605 -0.690544 0.354025
O 4.440200 -1.316472 1.440598
C 5.887906 -0.062131 0.028286
C 6.984128 -0.180353 0.901051
C 8.209221 0.428842 0.595228
O 9.288781 0.304803 1.469116
C 8.347426 1.166019 -0.592942
O 9.559245 1.778751 -0.913449
C 7.255127 1.288716 -1.468931
O 7.360217 2.017523 -2.653291
C 6.036820 0.676974 -1.156777
C 1.669043 1.518902 0.303249
O 1.649284 1.634706 -1.098797
C 0.517591 2.338841 0.905481
O 0.639054 2.330966 2.306879
C -0.853767 1.741384 0.488640
O -1.342983 2.402037 -0.651488
H -1.975070 -0.768689 2.947515
H -2.111939 -2.339860 3.813488
H -0.624684 -1.975871 2.868769
H -0.888406 -4.185842 1.551120
H -2.422684 -4.589264 2.380480
H -1.371195 -5.802839 -0.328914
H -5.260057 -2.587351 0.280985
H -4.578687 -1.955746 -2.183043
H -2.966577 -1.162154 -2.357300
H -5.358033 3.269018 -3.031807
H -5.804908 5.412286 -1.906170
H -5.638293 5.588344 0.562968
H -5.019462 3.603949 1.908769
H -4.563587 1.450256 0.811410
H -2.443792 -3.777197 -2.008084
H -0.230238 -3.059891 -0.159847
H -0.789441 -1.988826 -1.538117
H -0.450539 0.111951 -0.884983
H 2.094285 -0.064792 1.697975
H 2.176045 -1.993748 0.196670
H 1.602650 -1.003823 -1.181990
H 6.892279 -0.744113 1.821571
H 9.215437 -0.215000 2.336426
H 10.371842 1.718306 -0.310990
H 8.218985 2.479404 -2.926301
H 5.206510 0.787383 -1.843374
H 2.641597 1.910669 0.690276
H 2.061606 2.509900 -1.322685
H 0.605552 3.389927 0.539972
H 0.094794 3.092625 2.645699
H -1.576664 1.881908 1.326600
H -1.685723 3.284476 -0.349828
