55

C 3.507189 1.190500 2.433766
O 2.666338 0.502237 1.516643
C 2.896330 0.499952 0.136324
O 3.869554 1.143727 -0.344478
C 1.962054 -0.240210 -0.798299
C 1.520362 -1.607891 -0.189234
C 0.040444 -1.864632 -0.552095
C -0.466102 -3.251572 -0.017017
C -1.489695 -3.190113 1.184380
C -2.512383 -1.985088 1.216621
N -2.238754 -1.011546 0.131374
C -2.861707 -1.555019 -1.119149
C -2.778309 0.350722 0.288347
C -1.879672 1.222330 -0.613603
C -0.460255 0.671918 -0.305873
C 0.141831 1.743320 0.557851
C -0.106849 2.095105 1.886352
C 0.458810 3.284723 2.374159
C 1.231031 4.108399 1.529140
C 1.446069 3.750872 0.187225
C 0.866760 2.573941 -0.284049
N 1.080577 1.979299 -1.567640
C 0.697359 0.583321 -1.361766
C 0.208910 -0.218973 -2.587952
C -0.009689 -1.709783 -2.135640
C -0.765880 -0.753610 0.175596
H 4.534944 0.772103 2.393438
H 3.105558 1.064871 3.459978
H 3.533309 2.273006 2.188291
H 2.596234 -0.486620 -1.681755
H 1.648484 -1.645058 0.914710
H 2.162778 -2.420029 -0.597898
H -0.911789 -3.841287 -0.844169
H 0.398382 -3.869868 0.309592
H -0.895921 -3.153163 2.123956
H -2.056046 -4.145677 1.215187
H -2.441570 -1.486077 2.210181
H -3.555130 -2.373538 1.158963
H -2.636651 -2.619552 -1.300513
H -2.621778 -0.962855 -2.020660
H -3.972444 -1.539417 -1.038997
H -2.694617 0.692918 1.344796
H -3.850255 0.447335 0.001155
H -2.158070 1.121583 -1.677207
H -2.038853 2.298031 -0.367275
H -0.721979 1.474661 2.523579
H 0.293868 3.574978 3.403471
H 1.667432 5.018780 1.918677
H 2.057301 4.366464 -0.459475
H 1.793832 2.306747 -2.256576
H 0.973960 -0.179583 -3.393869
H -0.717411 0.203473 -3.020850
H 0.809872 -2.323623 -2.572035
H -0.901273 -2.141931 -2.618393
H -0.426489 -0.738600 1.243212
