34

C -4.124705 1.209894 -1.544889
O -3.648208 0.779142 -0.288298
C -2.477626 -0.015195 -0.428401
C -2.644345 -1.266583 0.470621
O -2.203620 -2.415871 -0.200966
C -1.242692 0.876427 -0.093645
C -1.071405 1.226990 1.339020
O -2.006748 1.567042 2.110512
O 0.251366 1.212195 1.728709
C 1.104780 0.920492 0.632640
C 2.226385 0.003917 1.070409
C 3.326125 -0.257233 0.330722
C 4.365554 -1.192376 0.892720
C 3.540150 0.364466 -1.028757
C 0.162335 0.332042 -0.461234
O 0.203061 -1.074245 -0.502777
H -4.986425 1.889403 -1.383615
H -4.481738 0.345315 -2.146651
H -3.345727 1.776006 -2.102082
H -2.338772 -0.380197 -1.477119
H -3.721221 -1.402639 0.719947
H -2.101641 -1.160953 1.434579
H -2.318946 -3.170194 0.433759
H -1.366740 1.838893 -0.638249
H 1.528064 1.884257 0.274389
H 2.130757 -0.464776 2.047228
H 5.216553 -1.330168 0.193760
H 3.910091 -2.186998 1.084879
H 4.761367 -0.783973 1.846711
H 4.518204 0.068029 -1.461187
H 2.747678 0.030324 -1.728618
H 3.528094 1.471484 -0.950457
H 0.456849 0.715654 -1.462006
H 0.103148 -1.410571 0.425474
