50

C 3.483990 -2.702105 0.028441
O 2.596117 -1.596105 -0.077590
C 2.921584 -0.280437 0.281384
C 4.175085 0.114389 0.792982
C 4.442024 1.413117 1.141822
C 3.493882 2.433515 1.015730
C 2.244034 2.054257 0.508908
C 1.967964 0.745754 0.145837
C 0.549879 0.694621 -0.320988
C 0.363587 0.265198 -1.771551
C -0.990230 -0.416134 -1.675201
C -2.196116 0.593029 -1.373093
C -1.903047 2.103927 -1.596762
O -1.030532 2.704507 -0.626386
C 0.196484 2.166087 -0.214567
N 1.137904 2.910584 0.277899
C -2.753645 0.320856 0.061915
C -1.617947 0.394912 1.113904
C -0.352505 -0.297512 0.506211
N -0.782320 -1.292827 -0.510436
C -2.004453 -2.066157 -0.168465
C -3.163827 -1.129226 0.065043
C -4.417524 -1.589675 0.245819
C -5.608716 -0.702541 0.469392
O -5.845771 0.069959 -0.674265
O 5.738086 1.507504 1.609955
C 6.327421 0.201759 1.557602
O 5.301062 -0.651574 1.033724
H 3.786078 -2.849146 1.086724
H 2.964136 -3.617277 -0.321488
H 4.377781 -2.536756 -0.609208
H 3.714280 3.455898 1.292509
H 1.129537 -0.488142 -2.062420
H 0.407706 1.085853 -2.518544
H -1.185010 -1.015007 -2.592375
H -3.007348 0.340758 -2.093966
H -1.496002 2.266055 -2.616337
H -2.867608 2.653830 -1.565344
H -3.577603 1.017054 0.322876
H -1.920961 -0.154430 2.034648
H -1.446500 1.428041 1.473184
H 0.224291 -0.803299 1.311548
H -2.244035 -2.761632 -1.002137
H -1.820044 -2.669319 0.746411
H -4.585747 -2.663299 0.237573
H -5.432729 -0.050103 1.353430
H -6.497468 -1.338750 0.675747
H -6.617734 0.654012 -0.455954
H 7.205830 0.204996 0.878791
H 6.616682 -0.129017 2.577067
