51

C -4.913936 0.799087 -1.737149
C -3.610303 1.532934 -1.399690
C -3.897498 2.930579 -0.841210
C -2.748568 0.732788 -0.430111
C -1.456349 0.487211 -0.744988
C -0.484144 -0.195715 0.188555
O 0.427555 -0.956123 -0.592635
C 1.770836 -0.671782 -0.252219
O 2.116279 0.614254 -0.739270
C 3.381190 1.051847 -0.248277
C 3.210108 1.864347 1.044922
O 2.355964 2.949468 0.809957
C 4.448574 -0.081356 -0.133426
O 4.483715 -0.610289 1.170671
C 4.108387 -1.189788 -1.142882
O 5.073362 -2.208922 -1.081337
C 2.679788 -1.743936 -0.893787
O 2.718247 -2.866907 -0.047911
C -1.190805 -1.107111 1.225314
C -1.711981 -2.408788 0.568119
O -0.251320 -1.441436 2.219918
C -2.343797 -0.304910 1.871047
C -3.372770 0.167215 0.836006
H -5.571793 0.720676 -0.845474
H -5.464069 1.348149 -2.530997
H -4.689805 -0.222216 -2.112771
H -3.067447 1.672457 -2.361775
H -4.437152 3.538485 -1.598487
H -2.944228 3.446975 -0.597996
H -4.521604 2.876734 0.075488
H -1.041729 0.901066 -1.660350
H 0.008713 0.637027 0.749540
H 1.896175 -0.722121 0.856850
H 3.772622 1.762461 -1.009888
H 2.783586 1.225713 1.849522
H 4.204139 2.240195 1.376568
H 2.286061 3.436842 1.671717
H 5.446602 0.350324 -0.385949
H 5.367589 -1.047897 1.282854
H 4.136005 -0.727709 -2.158968
H 4.964791 -2.753528 -1.904509
H 2.247047 -2.029334 -1.883156
H 2.884144 -3.659587 -0.622272
H -2.325770 -2.194025 -0.331738
H -0.860048 -3.051697 0.259957
H -2.331180 -2.985751 1.287810
H -0.706402 -2.012267 2.893678
H -2.860091 -0.921166 2.639554
H -1.924204 0.585024 2.391284
H -4.023626 -0.689413 0.559276
H -4.020861 0.931917 1.312553
