60

C -2.394642 4.121184 1.404490
C -1.241960 3.393871 0.773670
C -1.353239 2.179660 0.187358
C -2.721376 1.521677 0.025991
N -2.678287 0.124644 -0.467958
C -2.557279 -0.908973 0.593593
C -1.426232 -0.627187 1.593059
C -0.193453 -0.802895 0.680532
C 0.673705 -2.010357 0.966978
C 1.358574 -2.362187 2.133216
C 2.163140 -3.513585 2.118205
C 2.270689 -4.294210 0.951182
C 1.566521 -3.934948 -0.207850
C 0.778567 -2.785804 -0.174145
N -0.046922 -2.312783 -1.227706
C -0.929881 -1.349703 -0.584326
O -2.047782 -2.012809 -0.067555
C -1.590551 -0.253099 -1.413242
O -2.090759 -0.843135 -2.608817
C -3.267034 -0.216087 -3.080634
C -0.625146 0.888830 -1.758869
C -0.131720 1.547714 -0.473793
C 0.653954 0.541648 0.455431
C 2.077553 0.268288 -0.147015
O 2.036630 -0.448289 -1.374645
C 3.163204 -1.033764 -1.955805
C 3.040510 -1.668232 -3.298382
O 4.265901 -1.056950 -1.346358
C 0.972588 1.240936 1.779796
O 0.800160 0.661465 2.886117
O 1.566138 2.507738 1.755272
C 1.916881 3.216472 2.937272
H -3.198372 4.291079 0.657463
H -2.792262 3.535631 2.259484
H -2.050439 5.106131 1.783641
H -0.282428 3.898956 0.784915
H -3.306817 2.123478 -0.700475
H -3.285198 1.554831 0.983935
H -3.533389 -1.126970 1.076936
H -1.533502 0.362636 2.074887
H -1.441288 -1.395365 2.396334
H 1.275757 -1.772743 3.033856
H 2.703738 -3.802412 3.010024
H 2.891675 -5.180400 0.950473
H 1.629896 -4.538418 -1.103932
H -0.272555 -2.854092 -2.092011
H -3.413597 -0.494361 -4.144111
H -4.146675 -0.586540 -2.511602
H -3.217355 0.893048 -3.029413
H -1.146572 1.653185 -2.376302
H 0.197656 0.522777 -2.399058
H 0.560128 2.361643 -0.789965
H 2.613213 1.227530 -0.325707
H 2.690750 -0.302987 0.586694
H 2.333964 -2.521585 -3.240875
H 4.027035 -2.036772 -3.650586
H 2.653424 -0.922805 -4.023239
H 1.011189 3.394386 3.555060
H 2.663191 2.636334 3.520442
H 2.360379 4.194674 2.658066
