81

C 9.575506 0.118601 -3.237747
O 8.904009 -1.118377 -3.024156
C 7.668561 -1.246449 -2.372076
C 6.966557 -0.139448 -1.860335
C 5.736934 -0.317840 -1.220442
C 5.186315 -1.602944 -1.077339
C 3.882726 -1.783398 -0.401985
O 3.360135 -2.928905 -0.319727
O 3.228920 -0.674313 0.140814
C 1.941361 -0.745800 0.742829
C 1.517644 0.673238 1.187460
C 1.443180 1.673501 0.014293
O 2.637599 2.429824 -0.062962
C 2.751198 3.028283 -1.334524
O 0.325020 2.516371 0.215711
C -0.094164 2.314035 1.546042
C -1.573366 2.686679 1.675206
C 0.790844 3.269390 2.438203
C 2.114178 2.583668 2.736256
O 3.088962 3.205517 3.128439
C 2.140934 1.077544 2.566262
C 0.852364 0.582764 3.242734
C 0.170355 0.790902 1.863663
O -0.826483 -0.076520 1.315412
C -1.149836 -1.231561 2.075570
O -1.727958 -2.215724 1.230648
C -2.939033 -1.771724 0.638437
C -3.395323 -2.850057 -0.359332
O -4.537616 -2.427887 -1.103331
C -4.488549 -1.471987 -2.125832
O -3.378084 -1.011890 -2.511406
C -5.744158 -1.002389 -2.750601
C -6.981041 -1.540972 -2.349889
C -8.170059 -1.094046 -2.934737
C -8.138473 -0.104554 -3.919376
C -6.916846 0.439262 -4.323442
C -5.724114 -0.005938 -3.744696
C -4.010301 -1.519779 1.730494
O -5.222306 -1.071514 1.174751
C -3.481473 -0.495778 2.751026
O -4.369513 -0.383023 3.833346
C -2.091805 -0.914421 3.261469
O -2.194514 -2.058782 4.072273
C 5.890716 -2.706133 -1.589699
C 7.120220 -2.525843 -2.230066
H 9.808435 0.599500 -2.264275
H 10.526117 -0.073100 -3.775999
H 8.946388 0.792269 -3.856847
H 7.361447 0.863051 -1.952057
H 5.217352 0.553206 -0.840374
H 1.212023 -1.145106 0.004355
H 1.982714 -1.443118 1.606493
H 1.263733 1.097521 -0.925785
H 1.861364 3.651547 -1.575860
H 2.911086 2.257082 -2.119857
H 3.637802 3.694401 -1.333672
H -2.180670 2.123591 0.935337
H -1.938144 2.458857 2.699256
H -1.713444 3.771432 1.479392
H 0.285256 3.500787 3.400945
H 0.974018 4.229263 1.907276
H 3.078078 0.561555 2.870479
H 0.444038 1.213038 4.064701
H 0.998969 -0.458717 3.587955
H -0.235295 -1.714831 2.463803
H -2.763779 -0.836044 0.061326
H -3.652121 -3.780811 0.190299
H -2.566068 -3.095562 -1.057797
H -7.031318 -2.306741 -1.585720
H -9.117039 -1.514965 -2.622497
H -9.060030 0.240843 -4.369956
H -6.893703 1.206697 -5.086750
H -4.788920 0.431629 -4.072260
H -4.209651 -2.477175 2.260814
H -5.032003 -0.239272 0.667899
H -3.378051 0.493740 2.251191
H -5.113109 0.202528 3.536715
H -1.669203 -0.073515 3.855115
H -2.449451 -1.751577 4.981478
H 5.493306 -3.708784 -1.494803
H 7.650647 -3.386187 -2.617953
