52

C 5.732301 -0.897416 1.680052
C 5.370157 -0.316812 0.337377
C 4.381601 -0.917905 -0.367304
C 3.886085 -0.505807 -1.734315
C 2.772928 0.566525 -1.716895
O 3.182350 1.765980 -1.107318
C 1.454003 0.045526 -1.139143
C 1.292417 -0.172627 0.351322
C 0.446111 -0.265104 -1.990357
C -0.890444 -0.812610 -1.563792
O -1.577918 0.155476 -0.798289
C -2.873857 -0.298072 -0.435057
O -3.790047 0.735138 -0.783994
C -5.027554 0.581394 -0.113574
C -6.091405 1.438259 -0.810329
O -6.274827 0.983972 -2.122793
C -4.860637 0.928085 1.396068
O -5.096618 2.293940 1.645449
C -3.442311 0.555971 1.894642
O -2.575170 1.655968 1.754465
C -2.901664 -0.640457 1.088482
O -1.626408 -1.013605 1.543941
C 6.132299 0.904241 -0.140673
O 5.839085 2.004341 0.678982
H 4.858355 -0.838818 2.362884
H 6.579308 -0.349223 2.143504
H 6.032887 -1.960334 1.562831
H 3.906492 -1.797734 0.061416
H 3.472748 -1.412758 -2.227074
H 4.725193 -0.188566 -2.386349
H 2.607997 0.825822 -2.786057
H 3.322521 1.600492 -0.142373
H 1.017333 -1.228390 0.554565
H 0.505795 0.501975 0.747290
H 2.220386 0.032292 0.917003
H 0.592703 -0.135628 -3.059744
H -0.741823 -1.750189 -0.983346
H -1.465071 -1.052280 -2.487586
H -3.182720 -1.218379 -0.992228
H -5.378832 -0.475834 -0.196153
H -7.052849 1.359362 -0.254222
H -5.767284 2.503290 -0.830262
H -6.973268 1.565572 -2.521165
H -5.593231 0.308325 1.968230
H -6.060219 2.392423 1.863615
H -3.516060 0.274345 2.971919
H -1.809156 1.500680 2.366852
H -3.598671 -1.500066 1.236069
H -1.750879 -1.443607 2.430262
H 7.224154 0.681923 -0.126966
H 5.889975 1.184334 -1.181838
H 6.473739 1.977981 1.441976
