50

C 0.631695 4.687476 0.802947
O 0.359402 3.347634 0.411612
C 0.791739 2.242846 1.152357
O 1.463764 2.410331 2.206654
C 0.481656 0.876052 0.681835
C -0.676595 0.597403 0.044846
N -1.853537 1.401119 0.180335
C -2.936855 0.497935 0.033218
C -4.289106 0.796602 0.212109
O -4.689882 2.088196 0.545570
C -5.228692 -0.237870 0.044596
C -4.802850 -1.536308 -0.295748
C -3.437068 -1.814009 -0.464358
C -2.515623 -0.780333 -0.271995
C -1.023047 -0.802496 -0.454971
C -0.659557 -0.961890 -1.934293
C 0.077482 -2.284297 -2.020175
N 0.623861 -2.591339 -0.690606
C 2.057629 -2.209794 -0.562563
C 2.278571 -0.713204 -0.188012
C 3.789214 -0.435715 0.052277
C 4.081523 1.063464 0.207016
O 4.536678 -0.923949 -1.033683
C 1.395497 -0.288268 1.041861
C 0.492040 -1.439292 1.519816
C -0.280665 -1.950198 0.290875
H 0.187522 5.381321 0.060196
H 1.728732 4.856168 0.842690
H 0.183654 4.890861 1.798597
H -1.926346 2.344169 0.621597
H -5.667366 2.319709 0.677928
H -6.284908 -0.038612 0.172531
H -5.532617 -2.323530 -0.433288
H -3.107773 -2.806420 -0.743285
H -1.547665 -0.971905 -2.605503
H 0.009578 -0.145283 -2.283261
H -0.645618 -3.084337 -2.291509
H 0.850298 -2.256202 -2.819845
H 2.610837 -2.461411 -1.493745
H 2.517445 -2.850066 0.221201
H 1.987833 -0.121209 -1.082874
H 4.101824 -0.959812 0.986601
H 3.664713 1.453941 1.155392
H 3.657435 1.635802 -0.645456
H 5.178803 1.233102 0.234400
H 5.465222 -1.060568 -0.709082
H 2.033314 -0.017765 1.910204
H -0.219316 -1.083829 2.299138
H 1.092202 -2.255879 1.976790
H -1.005079 -2.718339 0.639060
