106

C -6.552802 -1.506569 1.010279
C -5.489229 -1.660875 -0.082191
C -4.402166 -0.557830 -0.090779
C -4.992486 0.861367 -0.197177
N -3.905241 1.856006 -0.303590
C -4.455796 3.211566 -0.451030
C -2.872739 1.784853 0.774765
C -1.457655 1.662790 0.155710
C -1.404249 0.987670 -1.200861
C -1.397340 -0.384888 -1.553280
N -1.290860 -0.507500 -2.898602
C -1.243843 0.731689 -3.403252
C -1.151907 1.086737 -4.747941
C -1.140314 2.454882 -5.068179
C -1.215880 3.425684 -4.047578
C -1.303557 3.036623 -2.698978
C -1.314065 1.668047 -2.408159
C -1.579706 -1.631995 -0.699030
C -0.366867 -2.564089 -0.789724
C -0.543174 -3.951658 -1.068848
O -1.842211 -4.448938 -1.272279
C -2.157926 -5.809030 -1.548374
C 0.584520 -4.813101 -1.128308
C 1.876877 -4.328042 -0.896385
C 2.028832 -2.976299 -0.604716
C 3.161141 -2.240946 -0.287535
C 2.707333 -0.943483 -0.037951
N 1.364311 -0.895693 -0.203561
C 0.953168 -2.126825 -0.545536
C 3.499715 0.279946 0.418383
C 2.916782 0.632311 1.775121
O 3.251873 -0.035417 2.793180
O 1.917776 1.605963 1.879597
C 1.208791 1.854723 3.086528
C 3.275621 1.427471 -0.639624
C 4.557982 1.649226 -1.469697
C 5.611762 2.280619 -0.532032
C 5.864175 1.351798 0.697738
C 5.618107 2.064097 2.047000
C 6.724355 3.066794 2.374262
C 5.060939 0.021039 0.516971
N 5.548186 -0.522622 -0.774949
C 5.569086 -1.989443 -0.964215
C 4.552970 -2.767178 -0.118979
C 5.074445 0.265794 -1.941360
C -2.014245 -1.442910 0.771713
C -3.370320 -0.704008 1.092929
C -3.113104 0.650259 1.813015
C -4.200964 0.978722 2.821804
O -4.784433 2.098281 2.807351
O -4.506958 0.046196 3.818178
C -5.537791 0.255116 4.774797
H -7.199051 -2.409355 1.019475
H -7.203170 -0.630631 0.804955
H -6.095825 -1.399147 2.014154
H -6.005930 -1.669120 -1.067173
H -4.996904 -2.652108 0.031268
H -3.901728 -0.673025 -1.062527
H -5.621411 0.909170 -1.114706
H -5.660047 1.090919 0.658147
H -5.114094 3.262552 -1.345405
H -3.632825 3.942853 -0.605343
H -5.038789 3.501728 0.450696
H -2.851759 2.733931 1.361316
H -1.042920 2.687358 0.051445
H -0.756566 1.179447 0.858844
H -1.281577 -1.399257 -3.442187
H -1.099852 0.331352 -5.521657
H -1.076068 2.763884 -6.103050
H -1.210744 4.476255 -4.305804
H -1.372973 3.786614 -1.924377
H -2.415517 -2.172930 -1.182422
H -1.827856 -6.455013 -0.707198
H -3.256457 -5.908000 -1.662319
H -1.672647 -6.129165 -2.494359
H 0.469479 -5.866436 -1.344341
H 2.722377 -5.000957 -0.936947
H 0.775372 -0.057002 -0.057776
H 0.492935 2.685701 2.920145
H 0.641655 0.947219 3.387124
H 1.916383 2.140175 3.894571
H 2.440636 1.200970 -1.339357
H 3.007414 2.391382 -0.153957
H 4.356363 2.314234 -2.337134
H 6.561195 2.425451 -1.092998
H 5.264327 3.290462 -0.221826
H 6.940080 1.060466 0.681660
H 5.589394 1.312153 2.864120
H 4.649627 2.607313 2.031194
H 6.773367 3.862743 1.602023
H 6.516886 3.541899 3.356310
H 7.707415 2.553231 2.433096
H 5.322362 -0.653712 1.358450
H 5.421897 -2.252594 -2.036138
H 6.583935 -2.353007 -0.695928
H 4.604924 -3.828740 -0.432382
H 4.825376 -2.756838 0.955815
H 5.917158 0.407025 -2.650754
H 4.257667 -0.264877 -2.480197
H -2.106953 -2.469862 1.194412
H -1.164823 -1.009368 1.338316
H -3.841094 -1.357183 1.858535
H -2.208564 0.564738 2.454586
H -6.516868 0.344160 4.259518
H -5.570894 -0.610318 5.467141
H -5.335240 1.176329 5.359425
