46

C -3.304691 2.872994 -0.663334
C -3.068954 1.799718 -1.427274
C -3.204788 0.374953 -0.922452
C -4.687641 0.053517 -0.634194
O -5.107639 0.645086 0.565050
C -2.249582 0.076980 0.278021
C -2.367531 -1.386689 0.751568
C -1.377042 -1.686311 1.885961
N 0.019248 -1.388404 1.513624
C 0.593104 -2.397002 0.585116
C 2.119641 -2.229660 0.470026
C 2.456411 -0.784255 0.295911
C 1.600554 0.248551 0.621404
N 2.190662 1.451832 0.438321
C 3.440470 1.170673 0.019832
C 4.453032 2.078604 -0.286196
C 5.698578 1.563126 -0.691035
C 5.903678 0.167448 -0.777942
C 4.864888 -0.727780 -0.463188
C 3.641911 -0.187488 -0.070783
C 0.181453 0.016954 1.051625
C -0.781616 0.371633 -0.099482
H -3.607925 2.775334 0.373228
H -3.185671 3.868366 -1.078464
H -2.755003 1.954944 -2.455494
H -2.900026 -0.287224 -1.763922
H -5.319571 0.420896 -1.474650
H -4.830147 -1.048390 -0.580375
H -6.059444 0.389258 0.680364
H -2.525785 0.736325 1.131070
H -3.387760 -1.577675 1.145520
H -2.195535 -2.082993 -0.097233
H -1.477069 -2.750501 2.192661
H -1.650309 -1.078393 2.776404
H 0.391243 -3.424224 0.960135
H 0.138484 -2.314666 -0.424927
H 2.499813 -2.815675 -0.393703
H 2.604960 -2.599681 1.398332
H 1.768705 2.394608 0.592971
H 4.289135 3.145859 -0.212064
H 6.506087 2.240955 -0.935236
H 6.866902 -0.215857 -1.088455
H 5.012709 -1.798113 -0.526195
H -0.023524 0.697335 1.907910
H -0.508318 -0.189001 -1.019909
H -0.666097 1.454035 -0.325032
