48

C -3.551134 1.965283 -0.363156
C -2.593696 0.861275 -0.835763
C -1.275592 0.666344 0.012267
C -1.645749 0.475335 1.511920
C -2.496547 -0.814299 1.740479
C -2.038191 -2.017131 0.870506
N -0.667493 -1.768808 0.441404
C 0.084973 -2.834251 -0.229880
C 1.202427 -2.095754 -1.022790
C 0.970252 -0.598651 -0.671034
C 1.836592 -0.274736 0.544304
C 1.819333 -0.800119 1.848449
C 2.808409 -0.392834 2.757813
C 3.814116 0.504567 2.358662
C 3.838719 0.994622 1.045914
C 2.844374 0.575564 0.162617
N 2.706880 0.989829 -1.178492
C 1.403723 0.543007 -1.669012
C 1.539710 0.080028 -3.062036
N 1.646325 -0.281697 -4.156172
C 0.424591 1.763238 -1.595137
C -0.321636 1.878787 -0.232919
C -0.542944 -0.635745 -0.459770
H -4.377136 2.064786 -1.098768
H -4.011216 1.705380 0.611598
H -3.052170 2.950055 -0.287320
H -3.179319 -0.079911 -0.858430
H -2.345365 1.064858 -1.896500
H -0.712493 0.388241 2.108201
H -2.176016 1.361871 1.916790
H -2.424895 -1.091252 2.814627
H -3.566636 -0.601738 1.531853
H -2.704586 -2.156823 -0.008454
H -2.076786 -2.947345 1.477611
H -0.571463 -3.411984 -0.919073
H 0.526319 -3.515836 0.527921
H 2.214864 -2.456717 -0.734507
H 1.056599 -2.288740 -2.106693
H 1.074797 -1.511368 2.170724
H 2.802528 -0.779631 3.768584
H 4.574468 0.812795 3.064386
H 4.610666 1.682813 0.727012
H 3.302518 1.718316 -1.633516
H 0.986918 2.707118 -1.768978
H -0.317689 1.710996 -2.417892
H 0.421667 1.959939 0.587079
H -0.872578 2.838343 -0.210248
H -0.990438 -0.908018 -1.452082
