47

C -3.133330 3.686172 0.835591
O -2.232760 2.607578 0.964852
C -2.551264 1.585189 0.037682
N -3.678292 0.798263 0.527845
C -3.808609 -0.479121 0.368126
C -2.675659 -1.348563 -0.140673
C -1.744318 -0.517685 -1.049138
C -0.508745 -1.357306 -1.421900
C 0.295680 -1.691683 -0.136865
C 1.614563 -0.972808 -0.143335
N 2.720627 -1.334194 -0.832457
C 3.613775 -0.351224 -0.601304
C 4.918750 -0.264729 -1.083738
C 5.684701 0.856077 -0.711754
C 5.136090 1.855128 0.124160
C 3.815101 1.745236 0.595862
C 3.081840 0.625506 0.209424
C 1.791129 0.238807 0.489370
C 0.753448 0.875404 1.355813
C -0.620989 0.200541 1.112038
C -1.302733 0.707717 -0.217504
N -0.476527 -1.290894 1.080924
C -1.842578 -1.889614 1.072493
C -1.801035 -3.426240 1.104769
H -3.007148 4.192381 -0.146710
H -2.909124 4.430085 1.627245
H -4.187774 3.358200 0.971463
H -2.835366 2.013631 -0.954125
H -4.688708 -0.967290 0.773296
H -3.117088 -2.180215 -0.733615
H -2.275561 -0.205551 -1.976569
H -0.837906 -2.298941 -1.913432
H 0.105997 -0.802224 -2.165606
H 0.524006 -2.778060 -0.102647
H 2.849931 -2.186426 -1.422089
H 5.331675 -1.034817 -1.722358
H 6.701846 0.953116 -1.068342
H 5.735955 2.711674 0.402776
H 3.385226 2.506100 1.234424
H 0.697597 1.966473 1.152757
H 1.049713 0.732255 2.416998
H -1.252402 0.476241 1.987488
H -0.582247 1.303276 -0.823346
H -2.337214 -1.606269 2.031202
H -1.096119 -3.771495 1.890529
H -1.492425 -3.847825 0.125546
H -2.811727 -3.821876 1.341692
