80

C 2.784534 0.883692 2.813829
O 2.991832 0.132909 1.637274
C 1.819581 -0.588852 1.310661
O 1.712618 -1.764101 2.099580
C 1.903972 -2.857077 1.229718
C 1.290718 -4.135603 1.828812
C 3.474563 -3.054642 1.151105
C 4.060662 -2.097479 0.132393
O 5.248355 -1.819520 0.118291
C 3.097495 -1.540457 -0.889036
C 2.251068 -2.740244 -1.337520
C 1.302314 -2.399679 -0.178717
O -0.073915 -2.513125 -0.556595
C -1.030834 -2.567276 0.493391
O -1.398644 -3.910405 0.740588
C -2.059860 -4.566933 -0.344586
C -3.228907 -5.387998 0.232742
O -4.217045 -4.559326 0.783824
C -2.463185 -3.678883 -1.578936
O -3.471895 -4.300709 -2.337183
C -2.844744 -2.208768 -1.226149
O -4.230500 -1.987959 -1.325610
C -2.306685 -1.777214 0.153567
O -2.053843 -0.371223 0.212223
C -3.057324 0.602855 0.316546
O -4.272262 0.268792 0.279069
C -2.690772 2.027202 0.488291
C -1.379365 2.387343 0.823096
C -1.029824 3.726492 1.011760
O 0.286287 4.031292 1.360202
C -1.993649 4.739485 0.857033
O -1.599428 6.067633 1.044817
C -3.323733 4.385470 0.523759
O -4.339238 5.331313 0.366331
C -3.656800 3.037260 0.347247
C 1.823510 -0.978017 -0.185956
C 1.086154 0.030364 -1.097520
O 1.702136 1.308386 -0.990660
C 1.213554 2.438932 -1.652659
O 0.237457 2.333435 -2.445042
C 1.836706 3.756956 -1.409541
C 2.943304 3.867919 -0.546709
C 3.518737 5.117335 -0.293768
C 3.000111 6.263271 -0.903318
C 1.901512 6.164511 -1.761288
C 1.320286 4.918843 -2.015762
H 3.746360 1.344761 3.113698
H 2.441201 0.240876 3.655194
H 2.057149 1.707648 2.630091
H 0.903750 0.013757 1.499920
H 0.379183 -3.914323 2.416096
H 1.066846 -4.869472 1.026528
H 1.990050 -4.612445 2.549249
H 3.734345 -4.091192 0.845149
H 3.934486 -2.871110 2.146939
H 3.542070 -0.931487 -1.706463
H 2.723845 -3.746529 -1.284806
H 1.783627 -2.567662 -2.332405
H -0.652824 -2.121130 1.434105
H -1.341214 -5.321550 -0.735085
H -2.839987 -6.086242 1.008735
H -3.686497 -6.023516 -0.555664
H -3.890250 -4.277578 1.677205
H -1.550072 -3.630750 -2.219766
H -3.481728 -3.859290 -3.225683
H -2.362348 -1.556544 -1.987619
H -4.679797 -2.560265 -0.652618
H -3.053682 -2.023459 0.940359
H -0.621251 1.631565 0.960686
H 0.600628 4.982169 1.510577
H -2.216793 6.862346 0.959027
H -4.209312 6.325825 0.477285
H -4.678660 2.781655 0.094064
H 1.101423 -0.297698 -2.159466
H 0.032664 0.116375 -0.794009
H 3.360143 2.993889 -0.059446
H 4.367009 5.196661 0.376223
H 3.449432 7.228215 -0.708163
H 1.501659 7.055174 -2.229725
H 0.463531 4.865129 -2.677740
