49

C -3.074484 1.254738 2.899772
C -2.745943 -0.145065 2.465848
C -2.116776 -0.447047 1.310306
C -2.132207 -1.831656 0.761357
N -1.627831 -1.742507 -0.635721
C -2.451562 -2.597032 -1.526448
C -0.212001 -2.214677 -0.711189
C 0.801628 -1.345746 0.067152
C 0.872638 0.209396 -0.222300
C 2.336355 0.588018 -0.224171
C 3.242062 0.680215 0.835639
C 4.598172 0.895811 0.539606
C 5.030243 0.983754 -0.798693
C 4.110149 0.849711 -1.851334
C 2.770282 0.634386 -1.533814
N 1.695931 0.511821 -2.456067
C 0.503795 0.716201 -1.641414
O 0.243592 2.105336 -1.563379
C 0.013841 2.400993 -0.206964
C -0.134766 1.069408 0.555166
C 0.214224 1.242585 2.028625
O 0.325815 2.391936 2.533208
O 0.384668 0.139155 2.854542
C -1.618510 0.531852 0.291587
C -1.762249 -0.308262 -1.027093
C -0.760755 0.079205 -2.110196
O -0.993513 -0.096950 -3.296495
H -2.157637 1.850660 3.061545
H -3.638322 1.220703 3.855365
H -3.713176 1.751116 2.138970
H -3.122719 -0.957540 3.081557
H -1.520913 -2.504354 1.404865
H -3.181846 -2.205730 0.801996
H -3.523822 -2.299304 -1.497781
H -2.107318 -2.519720 -2.581942
H -2.387116 -3.665336 -1.218845
H -0.139035 -3.255328 -0.319314
H 0.129663 -2.289089 -1.769093
H 1.790807 -1.811713 -0.144952
H 0.654524 -1.520577 1.147967
H 2.918077 0.569860 1.860396
H 5.317727 0.978270 1.343913
H 6.077736 1.146238 -1.016888
H 4.434191 0.911167 -2.882090
H 1.768034 0.730163 -3.474915
H -0.879681 3.053334 -0.105699
H 0.887841 2.982976 0.161854
H -2.334840 1.380637 0.239835
H -2.784971 -0.102012 -1.424274
