125

C -5.510719 -2.697803 -2.471142
C -4.885291 -2.468495 -1.125261
C -5.556420 -2.077218 -0.015082
C -7.062175 -1.871457 0.019894
O -7.346055 -0.497843 0.228406
C -7.701156 0.189391 -0.962409
O -9.127049 0.269108 -0.999004
C -9.725360 1.550085 -0.907063
C -11.145308 1.364342 -0.343147
O -11.100003 0.974116 1.003694
C -8.915103 2.559767 -0.070586
O -9.617426 3.776325 0.040303
C -7.622194 2.819395 -0.813853
O -6.832421 3.711669 -0.064771
C -6.856963 1.508517 -1.037210
O -6.205930 1.580007 -2.281013
O -7.617866 -2.608623 1.110510
C -6.896375 -3.009831 2.246695
C -5.573149 -2.784639 2.375818
C -4.845581 -3.257342 3.580409
O -5.454616 -3.891224 4.486817
O -3.478445 -2.988402 3.710142
C -2.726378 -3.383809 4.847467
C -4.826538 -1.984884 1.322559
C -4.656504 -0.528295 1.821476
C -3.716135 0.315004 1.010980
O -3.352074 1.428603 1.470513
O -3.221221 -0.128148 -0.220033
C -2.394910 0.673941 -1.067733
C -2.562108 0.241241 -2.538938
C -1.181993 -0.123346 -3.082544
C -1.021242 -1.650449 -3.246452
C -0.200611 0.570471 -2.118766
C 1.271000 0.153474 -2.239305
O 2.090430 1.142821 -1.633123
C 3.471638 1.002259 -1.547091
O 4.096880 0.353317 -2.424519
C 4.203847 1.568317 -0.365269
C 4.248850 0.618563 0.873343
C 4.141785 -0.851099 0.502775
C 5.252594 -1.459807 0.057249
O 6.490400 -0.805561 0.096591
C 6.812221 0.237720 1.027092
O 7.505948 1.266360 0.349472
C 8.907553 1.068992 0.370918
O 9.224834 -0.143110 -0.316070
C 10.591295 -0.172681 -0.681435
C 11.006669 -1.621100 -0.991698
O 12.342886 -1.682331 -1.421199
C 10.828856 0.799465 -1.871648
O 10.597458 0.184173 -3.114286
C 9.943046 2.066875 -1.737126
O 10.621380 3.178495 -2.270420
C 9.568123 2.332661 -0.265207
O 10.716367 2.687796 0.468775
C 5.550568 0.846315 1.621648
C 5.580706 1.654900 2.702789
C 6.838688 1.973824 3.463295
C 2.832324 -1.572882 0.498649
O 2.723507 -2.652325 -0.144895
O 1.756106 -1.182984 1.309406
C 0.914138 -0.049182 1.070332
C -0.453001 -0.399765 0.399569
C -0.611696 -1.883987 0.050865
C -0.874467 0.627670 -0.722221
H -5.946147 -1.759720 -2.862403
H -4.724226 -3.027414 -3.185473
H -6.280948 -3.495611 -2.416152
H -3.818893 -2.659674 -1.055214
H -7.561859 -2.271963 -0.887099
H -7.423526 -0.384012 -1.873075
H -9.847818 1.943724 -1.941624
H -11.712791 2.319537 -0.424119
H -11.699655 0.610100 -0.953999
H -11.103271 -0.022399 1.021203
H -8.690711 2.129015 0.936632
H -10.029863 3.793610 0.944151
H -7.880661 3.267454 -1.808318
H -6.502030 4.419284 -0.682321
H -6.086922 1.447560 -0.227030
H -5.266965 1.285492 -2.145270
H -7.439220 -3.541865 3.019826
H -2.760751 -4.486332 4.964617
H -3.131331 -2.897882 5.761140
H -1.669222 -3.075787 4.708162
H -3.808595 -2.429437 1.220941
H -4.246701 -0.552830 2.854234
H -5.636975 -0.016324 1.890745
H -2.744077 1.735480 -1.004387
H -2.965642 1.096992 -3.127042
H -3.299010 -0.585158 -2.642841
H -1.051797 0.320112 -4.093954
H -1.641495 -2.222554 -2.522839
H -1.359154 -1.946295 -4.263281
H 0.029421 -1.993844 -3.140324
H -0.199320 1.631489 -2.474021
H 1.451788 -0.824511 -1.757112
H 1.538415 0.068223 -3.316810
H 5.226212 1.836173 -0.707860
H 3.714461 2.524638 -0.067877
H 3.409363 0.869230 1.558327
H 5.217155 -2.462193 -0.348930
H 7.392805 -0.218792 1.859754
H 9.253100 0.993929 1.427943
H 11.227041 0.144696 0.179284
H 10.876380 -2.251488 -0.079687
H 10.351785 -2.051712 -1.779374
H 12.903983 -1.454639 -0.637559
H 11.898476 1.103602 -1.837127
H 9.657784 -0.140742 -3.118475
H 8.982841 1.894673 -2.285067
H 10.013602 3.622347 -2.918608
H 8.837448 3.178142 -0.235996
H 10.835222 3.669023 0.376279
H 4.657242 2.109966 3.055078
H 6.602966 2.668572 4.296235
H 7.268069 1.045781 3.894886
H 7.577271 2.460383 2.793001
H 0.709974 0.404989 2.070056
H 1.442787 0.740554 0.529504
H -1.180679 -0.248505 1.221896
H -0.498335 -2.499704 0.973903
H -1.632116 -2.082220 -0.324990
H 0.134862 -2.228108 -0.688646
H -0.625363 1.629589 -0.290275
