110

C 6.583854 -0.324692 5.112368
C 6.119996 -0.831193 3.743172
C 5.963032 0.316356 2.719103
C 7.379239 0.765060 2.057881
N 7.657401 0.340944 0.621361
C 8.661599 1.216494 -0.000040
C 6.382550 0.361872 -0.108970
C 6.090976 0.311278 -1.604062
C 4.621536 0.850902 -1.806357
C 3.425282 0.942204 -0.929438
N 2.645084 1.943627 -1.424562
C 3.201406 2.401741 -2.551021
C 2.687845 3.395862 -3.385948
C 3.419433 3.739823 -4.534344
C 4.632080 3.083043 -4.825314
C 5.126552 2.088489 -3.962513
C 4.375237 1.764102 -2.824465
C 2.772346 -0.063036 0.140744
C 1.266333 0.158639 0.261860
C 0.733624 1.166650 1.114411
C -0.649438 1.416007 1.163968
C -1.480912 0.677847 0.322155
C -2.847532 0.734103 0.104767
C -3.105276 -0.189515 -0.917305
N -1.946277 -0.788142 -1.295847
C -0.976816 -0.262421 -0.532650
C 0.384486 -0.550644 -0.591936
C -4.444588 -0.520054 -1.570712
C -4.319654 -0.088959 -3.024981
O -3.841851 -0.878589 -3.885728
O -4.657679 1.218233 -3.392289
C -4.532013 1.698287 -4.725027
C -4.703620 -2.080126 -1.448323
C -5.807042 -2.358310 -0.394134
C -7.146686 -1.855994 -1.004953
C -6.979923 -0.392882 -1.505282
C -8.245301 0.488429 -1.361812
C -8.626001 0.871916 0.064791
C -5.678928 0.213799 -0.889295
N -5.711691 -0.069175 0.579467
C -4.972164 0.888005 1.445817
C -3.822954 1.656198 0.772886
C -5.434346 -1.508864 0.862321
C -6.048185 -2.022685 2.192407
C -7.508923 -1.741026 2.408896
C -7.940470 -0.588525 3.267892
O -8.344095 -2.542115 2.016142
C 3.401084 -0.285223 1.613655
C 4.887346 0.038654 1.612367
C 5.548385 -0.743204 0.501618
C 6.253927 -2.029078 0.900564
O 7.383797 -2.319060 0.420107
O 5.566521 -2.967361 1.677586
C 6.125244 -4.223870 2.038807
H 6.846875 -1.192353 5.749508
H 7.484431 0.313429 5.014474
H 5.773126 0.247288 5.605518
H 6.866959 -1.571741 3.392334
H 5.146465 -1.351342 3.884040
H 5.587272 1.188959 3.303544
H 7.409858 1.877257 2.120009
H 8.220108 0.408682 2.695003
H 8.947207 0.813272 -0.993704
H 9.579349 1.241882 0.626328
H 8.277522 2.254254 -0.120317
H 6.065575 1.428754 0.029463
H 6.205221 -0.712666 -2.023233
H 6.819811 0.966269 -2.125127
H 1.724680 2.274931 -1.064215
H 1.751163 3.889914 -3.156354
H 3.044964 4.505204 -5.202713
H 5.182215 3.342167 -5.719008
H 6.051850 1.578476 -4.199330
H 2.834764 -1.058638 -0.348624
H 1.389186 1.793399 1.705046
H -1.039840 2.190836 1.809386
H -1.825560 -1.503679 -2.048807
H 0.748951 -1.289990 -1.295475
H -4.871062 2.752962 -4.766211
H -5.160548 1.089836 -5.407039
H -3.469167 1.653407 -5.048477
H -3.786175 -2.635839 -1.158011
H -5.023647 -2.520692 -2.418385
H -5.859548 -3.444968 -0.164314
H -7.430042 -2.512583 -1.858321
H -7.969592 -1.936682 -0.278771
H -6.841724 -0.459617 -2.606815
H -8.090696 1.427858 -1.937130
H -9.109379 -0.037031 -1.826548
H -9.541120 1.499402 0.042962
H -7.825652 1.471891 0.540696
H -8.847993 -0.026567 0.670827
H -5.685144 1.303608 -1.096391
H -4.563928 0.383646 2.347595
H -5.693529 1.642299 1.822808
H -4.200146 2.404705 0.047912
H -3.307818 2.245288 1.559704
H -4.338290 -1.636109 1.021614
H -5.486073 -1.579355 3.038586
H -5.877790 -3.117502 2.273365
H -9.040986 -0.449709 3.210478
H -7.655307 -0.784620 4.324526
H -7.448525 0.342158 2.921229
H 2.901828 0.325974 2.395904
H 3.260458 -1.345938 1.918515
H 4.678097 1.108328 1.370432
H 4.865791 -1.186557 -0.235568
H 7.062253 -4.073726 2.621472
H 5.396248 -4.772637 2.669187
H 6.343223 -4.822066 1.126615
