67

C 2.522782 2.252088 -2.456995
C 2.971762 1.098183 -1.601592
C 4.295265 0.637187 -1.686884
C 4.734789 -0.410150 -0.875348
C 3.868304 -1.001500 0.058871
C 4.341514 -2.176290 0.898775
C 3.611897 -3.461536 0.477256
C 4.164272 -1.908139 2.402229
C 2.546973 -0.529187 0.157589
C 2.093822 0.524122 -0.661150
O 0.784858 1.024896 -0.564208
C -0.108205 0.771870 0.526605
O 0.430462 1.249242 1.749179
C 0.651357 2.652768 1.712348
C 1.354689 3.048456 3.019405
O 1.853391 4.356317 2.942095
C -0.689909 3.409318 1.531318
O -0.455400 4.793582 1.454742
C -1.402702 2.923984 0.254277
O -0.705677 3.381922 -0.881724
C -1.494787 1.385758 0.255462
O -1.980625 0.936798 -1.003767
C -2.973621 -0.064747 -0.860415
O -2.441296 -1.183106 -0.167815
C -3.481152 -2.066283 0.219041
C -2.856757 -3.239592 0.982799
O -1.913887 -3.892212 0.177773
C -4.318240 -2.556732 -1.009572
O -5.674691 -2.204483 -0.868167
C -3.733842 -2.017906 -2.333684
O -4.593427 -2.327628 -3.402705
C -3.446373 -0.496385 -2.271511
O -4.593246 0.231218 -2.634845
H 2.422884 3.162866 -1.828626
H 3.250803 2.455142 -3.270999
H 1.535499 2.024843 -2.922664
H 4.991836 1.086128 -2.383682
H 5.754616 -0.758446 -0.978383
H 5.429160 -2.339780 0.722564
H 3.760151 -3.636129 -0.613165
H 4.023242 -4.335181 1.029841
H 2.520633 -3.388200 0.687335
H 3.087798 -1.866005 2.677562
H 4.647096 -0.947956 2.682665
H 4.642210 -2.717626 2.993765
H 1.876045 -0.990762 0.869152
H -0.252290 -0.323786 0.621612
H 1.343181 2.916496 0.879243
H 0.643542 2.980588 3.869388
H 2.180746 2.334073 3.231993
H 2.742131 4.287671 2.515476
H -1.343978 3.189423 2.408414
H -1.344446 5.237227 1.457970
H -2.439629 3.338604 0.256131
H -1.370651 3.460268 -1.617324
H -2.162516 1.104433 1.109668
H -3.844348 0.370623 -0.310105
H -4.147022 -1.550515 0.948624
H -2.357633 -2.848661 1.898972
H -3.652476 -3.954083 1.296514
H -1.538555 -4.622234 0.731581
H -4.285867 -3.669256 -1.073911
H -5.728912 -1.213174 -0.795107
H -2.760914 -2.544524 -2.488543
H -4.061069 -2.225402 -4.238924
H -2.637993 -0.295985 -3.016184
H -4.285574 1.137485 -2.890234
