49

C -3.215908 -2.062152 0.469379
C -2.297344 -1.254918 -0.078499
C -1.751349 -0.029857 0.666704
C -2.918744 0.882743 0.934397
C -3.367462 1.599693 -0.121714
C -2.694950 1.434513 -1.494740
N -1.210119 1.274767 -1.397513
C -0.575017 0.344740 -2.345263
C 0.497774 -0.460797 -1.571546
C 0.586812 0.154495 -0.139456
C 1.761871 1.167816 -0.099078
C 1.830618 2.228669 -1.036895
C 2.926559 3.098325 -1.077384
O 2.980761 4.131548 -2.010682
C 3.975953 2.930725 -0.179827
C 3.923031 1.913494 0.768231
C 2.822806 1.043142 0.825668
N 2.770409 0.085544 1.877287
C 1.577473 -0.623921 2.173033
O 1.457917 -1.167971 3.305785
C 0.505367 -0.832326 1.129179
C 0.635787 -2.296448 0.734582
O 1.686826 -2.686926 0.152265
O -0.364440 -3.220583 1.054929
C -0.294053 -4.590198 0.680037
C -0.876778 -0.513080 1.810045
C -0.744382 0.881623 -0.067255
H -3.588230 -2.917508 -0.085051
H -3.599400 -1.878365 1.468126
H -1.980817 -1.501443 -1.076404
H -3.354082 0.989349 1.922899
H -4.179200 2.308399 0.006707
H -2.917623 2.329548 -2.111863
H -3.164883 0.564075 -2.000209
H -0.093458 0.931012 -3.155967
H -1.303040 -0.334585 -2.837604
H 0.196937 -1.524659 -1.581678
H 1.475399 -0.414120 -2.100484
H 1.041218 2.394038 -1.749617
H 2.234780 4.282002 -2.679863
H 4.827337 3.599003 -0.207014
H 4.735307 1.814367 1.477563
H 3.566221 0.017235 2.552125
H -1.204461 -5.112529 1.038750
H 0.598949 -5.064813 1.138883
H -0.241115 -4.677980 -0.425832
H -0.768425 0.319094 2.544957
H -1.309645 -1.371248 2.368076
H -0.601187 1.816467 0.531827
