56

C -2.420692 -3.484621 2.369394
C -2.414527 -2.026475 2.013769
C -1.958536 -1.527522 0.840142
C -1.450644 -2.444662 -0.295249
N -0.103068 -2.088748 -0.826470
C 0.931769 -2.452200 0.146172
C 1.051706 -1.289462 1.115077
C 0.528983 -0.031423 0.344042
C 1.751162 0.789825 -0.010784
C 2.521067 1.628210 0.807370
C 3.682797 2.209696 0.276356
C 4.080135 1.923434 -1.042077
C 3.321496 1.048417 -1.833161
C 2.161260 0.492239 -1.286155
N 1.288979 -0.431225 -1.914196
C 1.550653 -1.085879 -3.194751
C 0.107679 -0.640244 -1.057160
C -1.106894 0.059789 -1.767402
O -1.470720 -0.665169 -2.915323
C -2.344630 0.263161 -0.862778
C -2.022879 -0.007284 0.619759
C -0.697819 0.740953 1.043147
C -0.578595 0.773890 2.610204
O -1.620509 1.510212 3.196082
C -0.819579 2.215832 0.586573
O -1.745803 2.936753 1.054305
O 0.008108 2.753292 -0.404690
C -0.103826 4.093643 -0.865831
H -2.830958 -3.616158 3.392360
H -1.385466 -3.885712 2.354343
H -3.061388 -4.049577 1.660271
H -2.797786 -1.343041 2.767103
H -1.449377 -3.513866 -0.002172
H -2.181786 -2.429203 -1.127524
H 0.712741 -3.407803 0.674059
H 1.897498 -2.594042 -0.387755
H 0.467314 -1.575565 1.999083
H 2.105320 -1.191301 1.461733
H 2.240544 1.830900 1.828765
H 4.281895 2.871883 0.888185
H 4.980640 2.370025 -1.443226
H 3.634100 0.812584 -2.841804
H 1.560603 -0.328327 -4.005935
H 2.534099 -1.599443 -3.156353
H 0.771336 -1.843642 -3.415707
H -0.758469 1.067462 -2.091479
H -2.015727 -0.057504 -3.481151
H -3.193086 -0.378906 -1.187911
H -2.721401 1.301872 -0.987826
H -2.881009 0.405176 1.198040
H -0.625564 -0.229674 3.064762
H 0.391863 1.223856 2.902216
H -1.419773 1.560776 4.167428
H 0.073535 4.799575 -0.027031
H 0.657212 4.270474 -1.653464
H -1.113983 4.264750 -1.295376
