41

C -3.096514 2.687720 -1.518368
C -3.288057 1.216570 -1.740373
O -4.364955 0.812558 -2.152048
C -2.176221 0.233373 -1.475921
C -2.459515 -0.622752 -0.226346
O -2.650352 0.207026 0.901959
C -1.522046 0.051292 1.725995
C -0.972325 -1.348702 1.511708
C 0.528860 -1.464236 1.820562
O 1.282126 -0.571587 1.003621
C 2.674673 -0.470445 1.066351
O 3.324921 -1.183905 1.879415
C 3.379331 0.475895 0.174811
C 2.652907 1.265599 -0.735737
C 3.315763 2.161153 -1.580639
C 4.706552 2.277914 -1.526173
C 5.437919 1.499065 -0.626434
C 4.780522 0.601629 0.221035
C -1.317190 -1.625684 0.057455
C -1.891016 -3.036325 -0.186478
C -3.323246 -2.761800 -0.406378
O -4.194312 -3.654279 -0.575186
O -3.618254 -1.417322 -0.428483
H -3.232807 3.229104 -2.477814
H -3.846699 3.051988 -0.785645
H -2.082891 2.909571 -1.123776
H -2.057487 -0.424259 -2.364661
H -1.215279 0.774633 -1.334874
H -0.777283 0.833834 1.460159
H -1.813889 0.193625 2.788358
H -1.529855 -2.035853 2.188135
H 0.702372 -1.224046 2.892209
H 0.859836 -2.509093 1.633684
H 1.574011 1.192388 -0.796513
H 2.750092 2.765121 -2.278378
H 5.217491 2.971780 -2.181129
H 6.515659 1.590517 -0.585320
H 5.367813 0.008083 0.910472
H -0.442955 -1.452042 -0.610841
H -1.742636 -3.729397 0.669255
H -1.455060 -3.478712 -1.107673
