30

C -2.884478 1.438628 -0.627763
C -2.097471 0.116529 -0.583322
C -3.041747 -1.009762 -0.125627
C -0.837114 0.217156 0.331130
C -0.061947 -1.126945 0.389572
C 1.358723 -0.933227 0.945634
C 2.246674 0.008010 0.065165
C 3.166147 -0.858382 -0.828156
O 3.026947 0.784520 0.949685
C 1.375040 0.942698 -0.837984
Cl 2.266722 2.385996 -1.427714
C 0.100082 1.320064 -0.126316
O -0.135542 2.484843 0.160926
H -3.828050 1.312642 -1.200689
H -2.300171 2.226528 -1.145825
H -3.134411 1.780569 0.399489
H -1.769527 -0.116179 -1.621243
H -3.324374 -0.873794 0.940356
H -2.563147 -2.002664 -0.252774
H -3.966382 -1.017973 -0.741573
H -1.162098 0.458821 1.368467
H 0.005739 -1.585140 -0.621879
H -0.600967 -1.839120 1.051125
H 1.835324 -1.929779 1.076950
H 1.260447 -0.505768 1.968928
H 2.563644 -1.553638 -1.451671
H 3.774343 -0.220119 -1.504205
H 3.860917 -1.456881 -0.200609
H 3.797739 1.165732 0.453773
H 1.068939 0.386636 -1.751531
