68

C 7.489487 1.810666 1.397579
C 7.252584 0.940391 0.144378
C 8.000952 -0.397324 0.372820
O 7.809429 1.629524 -0.952351
C 5.713009 0.698839 -0.073750
C 4.925648 2.017737 -0.288117
C 3.467003 1.711912 -0.486496
C 3.103856 0.719101 -1.312469
C 1.657646 0.321739 -1.440915
O 1.192817 -0.139352 -0.188667
C -0.056062 -0.797400 -0.316827
O -0.737882 -0.681110 0.919347
C -2.088476 -1.135222 0.846306
C -3.036866 0.036410 0.541983
O -4.375155 -0.396216 0.700081
C -5.265697 0.408407 -0.053688
O -5.165410 1.782489 0.326749
C -5.945974 2.060035 1.471639
C -7.451026 2.013500 1.124013
O -7.917852 3.281238 0.731908
C -7.738858 0.964677 0.017316
O -9.050480 0.467364 0.123234
C -6.701922 -0.172807 0.075909
O -6.933094 -1.097276 -0.958221
C -2.304478 -2.372571 -0.084373
O -2.684661 -1.966142 -1.377452
C -1.003615 -3.190670 -0.150651
O -0.704486 -3.693292 1.128764
C 0.155380 -2.301078 -0.669072
O 1.401037 -2.779224 -0.219867
C 4.180726 0.000715 -2.087191
C 5.389888 -0.351927 -1.195329
H 6.960606 1.390547 2.280022
H 8.573381 1.868394 1.636171
H 7.149623 2.854033 1.233512
H 9.077307 -0.210515 0.573676
H 7.567714 -0.941382 1.239427
H 7.948962 -1.061255 -0.513030
H 7.847530 1.017490 -1.730729
H 5.320712 0.261216 0.874435
H 5.014612 2.685408 0.591683
H 5.310672 2.555231 -1.181135
H 2.722302 2.240909 0.102120
H 1.558583 -0.459928 -2.226211
H 1.071330 1.211730 -1.758605
H -0.674112 -0.310264 -1.112525
H -2.343941 -1.477699 1.874296
H -2.835873 0.856105 1.267805
H -2.822619 0.421494 -0.481919
H -4.994947 0.349600 -1.133119
H -5.711836 1.341639 2.292698
H -5.678836 3.068430 1.852232
H -7.991464 1.729280 2.053799
H -7.365232 3.580784 -0.037827
H -7.643681 1.451253 -0.980289
H -9.116921 -0.026660 0.982837
H -6.789522 -0.683036 1.066844
H -7.629023 -1.727085 -0.631919
H -3.115229 -3.005367 0.347188
H -2.991695 -2.778427 -1.860549
H -1.133979 -4.042341 -0.860619
H -1.252196 -4.512539 1.252245
H 0.160143 -2.377363 -1.778115
H 1.476925 -2.566741 0.748237
H 3.788295 -0.925165 -2.560410
H 4.522433 0.672450 -2.904841
H 6.248987 -0.508892 -1.877119
H 5.193518 -1.334467 -0.710750
