51

C 0.154913 4.660859 -0.901721
O 0.000707 3.253238 -0.770557
C 0.404240 2.552772 0.371289
O 0.953054 3.166456 1.327404
C 0.236135 1.081643 0.431844
C -0.769251 0.474021 -0.253718
N -2.022762 1.137945 -0.462400
C -3.015418 0.144947 -0.241111
C -4.401534 0.346223 -0.156564
O -4.982385 1.600568 -0.337223
C -5.218757 -0.764340 0.113621
C -4.654260 -2.041860 0.285994
C -3.265954 -2.221444 0.196930
C -2.461116 -1.103765 -0.042120
C -0.979040 -1.041146 -0.273417
C -0.623718 -1.672439 -1.637086
C 0.474220 -2.690268 -1.320467
N 1.083949 -2.245214 -0.058223
O 1.665985 -3.305557 0.561071
C 2.126040 -1.212200 -0.356489
C 2.417389 -0.263209 0.823048
C 3.426411 0.874233 0.481604
C 4.868468 0.357417 0.338726
O 3.035976 1.608707 -0.654309
C 1.094620 0.275102 1.416118
C 0.297859 -0.919812 1.932537
C -0.085763 -1.787606 0.731725
H -0.239529 4.980122 -1.888057
H 1.229887 4.932756 -0.838406
H -0.412487 5.181307 -0.101346
H -2.194213 2.163398 -0.382255
H -4.437488 2.424417 -0.556140
H -6.291989 -0.640515 0.182094
H -5.295360 -2.892287 0.478332
H -2.833644 -3.207812 0.300455
H -0.242213 -0.909590 -2.351215
H -1.484949 -2.187974 -2.118182
H 0.009600 -3.696202 -1.192234
H 1.213683 -2.764256 -2.150743
H 3.068463 -1.718047 -0.661966
H 1.820292 -0.588592 -1.223978
H 2.900623 -0.877233 1.617554
H 3.440544 1.580569 1.340190
H 5.188276 -0.157045 1.269731
H 5.554503 1.212482 0.160557
H 4.960606 -0.347913 -0.512979
H 3.313805 1.106901 -1.464012
H 1.333244 0.901100 2.303705
H 0.893265 -1.513924 2.660427
H -0.619796 -0.571772 2.457339
H -0.635135 -2.675160 1.124624
