50

C -3.775151 -2.538610 -1.839345
C -2.788764 -1.676696 -1.557252
C -2.395030 -1.294943 -0.130699
C -3.617550 -0.714336 0.620407
C -1.911494 -2.559483 0.616570
C -1.231666 -0.248409 -0.140183
C -1.655189 1.063001 -0.789943
C -1.738061 2.255855 -0.157956
C -2.175025 3.457675 -0.955435
C -1.405762 2.420857 1.305464
O -0.134293 -0.777853 -0.870768
C 1.100822 -0.306156 -0.364052
O 1.422670 -1.048444 0.804505
C 2.643170 -0.630294 1.400554
C 2.514287 0.755495 2.071806
O 3.522870 0.923402 3.029845
C 3.833905 -0.768495 0.415423
O 5.015988 -0.254516 0.972906
C 3.543601 -0.061268 -0.914277
O 4.548419 -0.391729 -1.838449
C 2.173959 -0.503560 -1.450005
O 1.853031 0.262314 -2.583319
H -4.357539 -3.012692 -1.056346
H -4.004806 -2.778308 -2.872548
H -2.244587 -1.252079 -2.396296
H -4.060812 0.137204 0.060080
H -4.409556 -1.481533 0.755071
H -3.322296 -0.358054 1.630573
H -1.573886 -2.303201 1.644005
H -2.725266 -3.310210 0.706507
H -1.063190 -3.035517 0.078853
H -0.957658 -0.084313 0.928009
H -1.902837 1.027480 -1.847277
H -2.196471 4.379239 -0.336823
H -1.472030 3.622893 -1.799517
H -3.194985 3.287670 -1.360804
H -2.068228 1.779217 1.922254
H -0.345199 2.149124 1.486142
H -1.546823 3.469417 1.639913
H 1.033267 0.785740 -0.145923
H 2.838555 -1.350455 2.225379
H 2.578133 1.573441 1.322605
H 1.523536 0.817002 2.575522
H 3.374145 1.817480 3.434239
H 3.973894 -1.854717 0.197009
H 5.305981 -0.898147 1.671054
H 3.538699 1.041107 -0.743704
H 4.531721 0.304808 -2.545481
H 2.227602 -1.585744 -1.721021
H 1.175900 -0.250659 -3.097270
