50

C 2.612562 -2.035695 2.317834
C 1.174876 -2.181400 1.908637
C 0.658648 -1.675130 0.765288
C -0.852848 -1.799034 0.534056
N -1.242992 -1.874351 -0.914596
C -0.981187 -3.259904 -1.395385
C -2.734034 -1.622796 -1.053944
C -3.181624 -0.157137 -1.380176
C -2.113325 0.838507 -1.070239
C -0.792618 0.496219 -1.225734
N -0.016587 1.173393 -0.339543
C -0.842759 2.040326 0.285445
C -0.538112 2.902632 1.342991
C -1.596185 3.595808 1.956889
C -2.927050 3.388445 1.535785
C -3.212231 2.489725 0.493184
C -2.139995 1.850576 -0.129925
C 1.295308 0.706515 0.144149
C 2.397948 1.541449 -0.445678
O 2.247409 2.097061 -1.569093
O 3.605881 1.659163 0.247530
C 4.705695 2.409442 -0.252399
C 1.493255 -0.804543 -0.179228
C 1.061037 -1.086067 -1.620097
C -0.461631 -0.882749 -1.724778
H 2.764175 -2.497689 3.315739
H 3.271305 -2.553439 1.589581
H 2.887631 -0.961909 2.382368
H 0.524790 -2.720744 2.592504
H -1.331408 -0.922580 1.024478
H -1.250542 -2.687113 1.078950
H -1.710647 -3.978418 -0.956977
H 0.023261 -3.627463 -1.095780
H -1.065264 -3.323434 -2.503212
H -3.168847 -2.252307 -1.865403
H -3.269757 -1.952204 -0.134139
H -3.404264 -0.079245 -2.466322
H -4.116986 0.083507 -0.831785
H 0.478754 3.035526 1.688016
H -1.390333 4.277736 2.771605
H -3.735143 3.911590 2.030213
H -4.233570 2.303494 0.188182
H 1.345144 0.827447 1.248989
H 5.543858 2.354297 0.472075
H 5.041558 1.989642 -1.224234
H 4.412248 3.472523 -0.383634
H 2.571313 -1.062712 -0.103638
H 1.577170 -0.392406 -2.319086
H 1.369633 -2.104090 -1.931447
H -0.753522 -0.950466 -2.798010
