50

C 0.939458 4.562085 -0.261696
O 0.830672 3.235551 -0.761776
C 1.455540 2.143410 -0.148999
O 2.177079 2.320119 0.872085
C 1.285208 0.743458 -0.707387
C 0.599190 0.764675 -2.108213
C -0.947982 0.844665 -2.097762
C -1.609378 0.296481 -0.792672
C -3.013970 -0.268463 -1.117571
C -3.632307 -0.986731 0.090940
C -2.707933 -2.083214 0.626954
N -1.316382 -1.639559 0.826123
C -1.018506 -0.889840 2.053263
C 0.002013 0.193897 1.641962
C -0.812034 1.435386 1.415023
O -0.759175 2.360953 2.210718
C -1.758469 1.495951 0.244279
C 0.573120 -0.306974 0.286199
C 1.656938 -1.364991 0.466132
C 1.618947 -2.599585 1.140868
C 2.760342 -3.416753 1.137545
C 3.918511 -3.013917 0.453425
C 3.935354 -1.796823 -0.238713
C 2.790115 -1.000324 -0.214500
N 2.635106 0.215710 -0.903908
C -0.713883 -0.897626 -0.289614
H 0.531833 4.613411 0.770007
H 0.356497 5.245204 -0.912644
H 2.002683 4.882676 -0.262472
H 1.012625 1.584161 -2.736430
H 0.873804 -0.176953 -2.636203
H -1.303807 0.262239 -2.976633
H -1.267596 1.887214 -2.310898
H -3.690467 0.551508 -1.444571
H -2.948757 -0.998816 -1.954931
H -3.880229 -0.280663 0.907866
H -4.591830 -1.451312 -0.223403
H -3.118770 -2.482688 1.579829
H -2.703436 -2.926585 -0.097125
H -1.942214 -0.470529 2.516789
H -0.569611 -1.568472 2.806600
H 0.790126 0.350436 2.411638
H -2.782303 1.568451 0.658982
H -1.614701 2.479349 -0.248113
H 0.735808 -2.953447 1.644928
H 2.744491 -4.366783 1.655852
H 4.793674 -3.650560 0.449308
H 4.815231 -1.486540 -0.787269
H 3.366390 0.648590 -1.512785
H -0.497014 -1.607432 -1.121028
