47

C -3.423112 1.027868 2.259712
C -3.223198 0.975838 0.739038
C -1.753553 0.808785 0.234762
C -1.805568 1.027896 -1.265528
C -1.867131 0.020733 -2.144505
C -1.624997 -1.412045 -1.758032
N -1.815637 -1.666144 -0.310165
C -1.302948 -3.015518 0.065379
C 0.247571 -3.162477 -0.041408
C 0.942107 -1.868325 0.263938
C 0.270649 -0.686037 0.451300
N 1.098491 0.376059 0.462957
C 2.330960 -0.138202 0.256176
C 3.534188 0.551719 0.095972
C 4.690463 -0.198064 -0.187644
C 4.621032 -1.602697 -0.322914
C 3.394664 -2.275155 -0.174425
C 2.269096 -1.512238 0.128088
C 0.667867 1.775514 0.427783
O 0.811800 2.260196 -0.897258
C 1.208805 3.613967 -0.895307
C -0.815053 1.882961 0.880527
C -1.213666 -0.620390 0.553925
H -4.511294 1.066818 2.477660
H -2.969061 1.944294 2.689172
H -3.014549 0.132546 2.766466
H -3.649331 1.918093 0.326436
H -3.843952 0.143971 0.338233
H -1.939264 2.040464 -1.637781
H -1.963605 0.255889 -3.200182
H -0.597067 -1.668554 -2.089431
H -2.332884 -2.048178 -2.330770
H -1.789107 -3.792838 -0.563931
H -1.608282 -3.234288 1.112285
H 0.519008 -3.479634 -1.070769
H 0.601172 -3.946680 0.660970
H 3.582153 1.628882 0.181928
H 5.639332 0.306905 -0.313374
H 5.516767 -2.165038 -0.552193
H 3.329180 -3.348723 -0.295698
H 1.296827 2.336473 1.161752
H 0.499820 4.248535 -0.319633
H 2.239365 3.721771 -0.492013
H 1.216125 3.981600 -1.941709
H -1.203158 2.904141 0.675679
H -0.816192 1.750354 1.983377
H -1.444835 -0.861046 1.611155
