81

C 4.095232 1.266216 3.438240
C 3.448543 0.654347 2.435505
C 3.628626 0.987686 0.952841
C 4.294176 2.366650 0.683749
C 4.481424 -0.131445 0.298389
C 5.861239 -0.387707 0.935242
C 6.522507 -1.571154 0.276280
C 6.333432 -2.857026 0.642540
C 5.500533 -3.221555 1.852448
C 7.032270 -3.937217 -0.102500
O 6.955263 -5.132137 0.287603
O 7.775498 -3.645697 -1.244072
O 2.366775 0.917502 0.292617
C 1.400460 1.867522 0.725102
O 1.325040 2.877412 -0.281149
C 0.043972 3.468452 -0.352960
C -0.984408 2.465266 -0.913826
O -2.295343 2.941258 -0.595801
C -3.389132 2.840865 -1.467296
O -3.284442 2.225752 -2.564620
C -4.702587 3.455378 -1.072074
C -5.199969 4.390714 -2.183128
C -5.718023 2.343548 -0.741514
C -7.012010 2.879145 -0.128631
C -0.741109 1.035287 -0.353904
O -1.968726 0.364731 -0.105595
C -2.250640 -0.601288 -1.106886
O -1.329523 -1.692122 -1.031164
C -1.746611 -2.680257 -0.108138
C -0.566403 -3.625510 0.176029
O -0.947479 -4.654392 1.049020
C -2.998817 -3.429795 -0.650968
O -2.619130 -4.533749 -1.436163
C -3.886094 -2.484136 -1.499310
O -5.231901 -2.878570 -1.424354
C -3.743219 -1.030791 -1.022784
O -4.213292 -0.904481 0.298261
C 0.050830 1.119748 0.962041
O 0.249387 -0.148784 1.536248
H 3.928952 0.941812 4.460687
H 4.793777 2.077553 3.269366
H 2.798051 -0.178902 2.688249
H 5.344307 2.395650 1.033283
H 4.292841 2.582722 -0.406106
H 3.756049 3.188820 1.199181
H 3.893087 -1.074372 0.326545
H 4.626227 0.109574 -0.778543
H 5.789818 -0.548136 2.030841
H 6.514344 0.494681 0.774614
H 7.163027 -1.342810 -0.568137
H 6.087628 -3.029332 2.775774
H 5.209264 -4.292379 1.836575
H 4.556480 -2.641323 1.889130
H 8.246109 -4.380495 -1.760138
H 1.671578 2.355874 1.690797
H -0.269065 3.849732 0.647468
H 0.094617 4.349180 -1.030078
H -0.847482 2.438892 -2.018595
H -4.533133 4.068086 -0.159188
H -6.081813 4.968742 -1.836389
H -4.405699 5.121741 -2.448411
H -5.478810 3.815739 -3.092743
H -5.963251 1.760464 -1.657249
H -5.258006 1.646973 -0.007606
H -7.592194 3.458290 -0.876473
H -7.640246 2.024667 0.204520
H -6.791499 3.522571 0.749308
H -0.086311 0.493634 -1.080103
H -2.122027 -0.146504 -2.117230
H -2.002267 -2.200192 0.866322
H -0.203837 -4.074807 -0.771669
H 0.283858 -3.054238 0.611200
H -1.003337 -4.251120 1.954210
H -3.579074 -3.784286 0.234374
H -3.396094 -5.150963 -1.461125
H -3.545040 -2.514145 -2.562843
H -5.341487 -3.652249 -2.036846
H -4.339785 -0.366739 -1.692105
H -5.204301 -0.874028 0.252758
H -0.554494 1.707453 1.687624
H 0.652890 -0.735497 0.846525
