46

C -1.561504 3.985556 0.308141
O -1.002362 2.698782 0.077651
C -1.574270 1.771232 -0.802196
O -2.648601 2.056894 -1.401039
C -0.958462 0.388680 -0.954310
C -1.118796 -0.094772 -2.470197
O -0.805017 -1.467836 -2.775593
C -1.790408 -2.433686 -2.345338
C -1.495217 -3.021474 -0.897118
C -0.854760 -1.911455 -0.058395
C 0.288249 -1.720037 0.975980
N -0.250208 -1.492406 2.325818
C -1.044630 -0.255127 2.406498
C -2.162564 -0.220146 1.358080
C -1.731489 -0.632885 -0.079061
C 1.054638 -0.468727 0.482560
C 0.512847 0.436214 -0.459802
N 1.451390 1.332908 -0.841566
C 2.565544 1.008890 -0.151935
C 3.807961 1.637727 -0.221112
C 4.854805 1.118552 0.563397
C 4.642933 -0.009898 1.387179
C 3.381254 -0.629734 1.437975
C 2.362076 -0.086145 0.660001
H -1.595728 4.560561 -0.641338
H -2.586140 3.884956 0.724557
H -0.928957 4.531851 1.037373
H -0.451724 0.540267 -3.090786
H -2.144884 0.123637 -2.840737
H -1.769227 -3.281905 -3.060903
H -2.824285 -2.029102 -2.410985
H -0.829238 -3.914683 -0.965472
H -2.444944 -3.349421 -0.423068
H -0.059039 -1.928236 -0.822736
H 0.965755 -2.604923 0.995328
H -0.862949 -2.302765 2.580694
H -0.391640 0.637628 2.302792
H -1.500338 -0.185309 3.418006
H -2.945749 -0.936506 1.693013
H -2.642834 0.780411 1.362300
H -2.713222 -0.810732 -0.569768
H 1.337439 2.111588 -1.528151
H 3.965468 2.495715 -0.861780
H 5.831038 1.584500 0.531538
H 5.457822 -0.401893 1.981673
H 3.209964 -1.496745 2.062832
