50

C -2.648365 -2.950116 0.828644
C -2.349054 -1.511267 0.478240
C -3.273228 -0.736380 -0.153869
C -4.536168 -1.350306 -0.625694
O -4.515186 -2.197126 -1.558785
O -5.745440 -1.003309 -0.031938
C -2.994443 0.726962 -0.538120
C -2.770460 0.804690 -2.066160
C -4.202750 1.621066 -0.177662
C -1.754703 1.297840 0.205073
C -0.593781 0.305944 0.238088
O 0.491848 0.907783 0.926103
C 1.733627 0.532271 0.359750
O 1.917936 1.257172 -0.845670
C 3.123326 0.920257 -1.518441
C 2.999585 -0.384888 -2.341033
O 3.127823 -1.535627 -1.551119
C 4.387755 1.065941 -0.624500
O 5.507759 0.510518 -1.265875
C 4.210173 0.474720 0.791553
O 4.332418 -0.925250 0.781098
C 2.846228 0.876167 1.363767
O 2.634564 0.202020 2.578668
C -1.043809 -0.946415 0.992630
H -3.595681 -3.014834 1.404998
H -2.733926 -3.555874 -0.097416
H -1.842556 -3.391402 1.452805
H -6.615249 -1.418221 -0.343634
H -2.505623 1.838692 -2.375597
H -1.959507 0.120446 -2.390939
H -3.691492 0.511650 -2.614881
H -4.473805 1.496804 0.893151
H -5.090884 1.375251 -0.797516
H -3.963217 2.692122 -0.355434
H -2.025721 1.552631 1.255314
H -1.415750 2.242664 -0.275161
H -0.335766 0.029723 -0.811660
H 1.749271 -0.566804 0.181491
H 3.242566 1.706493 -2.297041
H 2.002373 -0.405193 -2.830350
H 3.755784 -0.380903 -3.162173
H 4.045189 -1.888140 -1.692028
H 4.556981 2.162360 -0.496197
H 6.310593 0.873685 -0.808229
H 4.994750 0.907007 1.457668
H 5.303283 -1.133114 0.780034
H 2.850042 1.979286 1.537275
H 1.965774 0.728233 3.090060
H -1.166066 -0.709230 2.072247
H -0.247014 -1.716001 0.904532
