49

C 4.343788 -0.007872 -3.083280
C 4.559039 -1.028249 -2.246517
C 4.673448 -0.822273 -0.762343
C 3.331399 -0.486544 -0.164523
C 2.414040 -1.504939 0.120415
C 1.145483 -1.208977 0.656772
O 0.240559 -2.235776 0.968911
C 0.461614 -3.623621 0.735011
C 0.791207 0.146044 0.886925
O -0.456084 0.556401 1.398322
C -1.623037 -0.248722 1.595457
O -2.031061 -0.880131 0.387989
C -2.369419 0.071446 -0.609144
C -2.570551 -0.653111 -1.947403
O -3.492263 -1.700275 -1.812213
C -3.614627 0.886120 -0.195129
O -4.736760 0.043964 -0.088367
C -3.333926 1.590597 1.146561
O -4.505457 2.200718 1.624874
C -2.760404 0.610771 2.195472
O -3.773436 -0.190807 2.757344
C 1.711543 1.166009 0.593525
O 1.323953 2.495049 0.830810
C 2.127008 3.635283 0.544842
C 2.975300 0.844844 0.069625
H 4.241851 1.006790 -2.711740
H 4.272519 -0.186247 -4.151771
H 4.665682 -2.030616 -2.649528
H 5.417447 -0.022751 -0.549527
H 5.061103 -1.754322 -0.296649
H 2.702052 -2.528978 -0.076131
H -0.432501 -4.192959 1.060674
H 1.336397 -3.974992 1.320309
H 0.622506 -3.807106 -0.347943
H -1.383864 -1.032854 2.345483
H -1.526916 0.781281 -0.778557
H -2.924917 0.066154 -2.718425
H -1.590204 -1.064438 -2.278842
H -3.505095 -2.169858 -2.685834
H -3.797327 1.665668 -0.973768
H -5.539743 0.610587 -0.229231
H -2.568012 2.379422 0.952143
H -4.227184 2.835661 2.335894
H -2.328384 1.214884 3.023826
H -4.004932 -0.904780 2.108524
H 3.063506 3.602436 1.141074
H 2.363679 3.673207 -0.539219
H 1.564802 4.551923 0.817226
H 3.686177 1.625937 -0.163462
