28

C -3.025932 -0.793048 -1.055828
C -2.726365 0.348544 -0.114659
C -3.687257 1.505972 -0.022358
C -1.618695 0.367693 0.658798
C -0.568601 -0.721579 0.679081
O 0.234698 -0.562671 1.846601
C 1.528786 -0.218843 1.526180
O 2.413072 0.019807 2.389953
C 1.705683 -0.184503 0.089445
C 2.806273 0.142825 -0.602835
C 4.095542 0.556962 0.047043
O 5.053847 0.866770 -0.927672
C 0.411058 -0.605115 -0.530306
O 0.586926 -1.855122 -1.143200
H -4.005516 -0.657391 -1.559285
H -3.064976 -1.752178 -0.498980
H -2.248598 -0.845937 -1.843790
H -4.551891 1.379457 -0.706573
H -3.166020 2.448559 -0.293444
H -4.074154 1.590711 1.015285
H -1.461817 1.217888 1.319134
H -1.051319 -1.721500 0.721984
H 2.763428 0.110524 -1.685529
H 3.919699 1.462454 0.665229
H 4.470612 -0.257369 0.707669
H 5.381637 0.001920 -1.289490
H 0.084371 0.158005 -1.275538
H -0.204493 -2.002836 -1.721810
