55

C -4.369747 -1.154773 -0.151034
C -3.746601 0.049447 -0.796327
C -2.540396 0.576926 -0.472745
C -2.233176 1.954689 -1.046645
N -0.892922 2.488811 -0.713580
C 0.176209 2.141321 -1.685428
C 0.218214 0.644632 -2.025662
C 0.671027 0.070726 -0.669226
C 2.073867 -0.494087 -0.655369
C 2.644598 -1.487113 -1.457334
C 3.966914 -1.880877 -1.195394
C 4.697722 -1.276286 -0.153810
C 4.116436 -0.264267 0.626716
C 2.798929 0.104094 0.358778
N 2.090222 1.174830 0.967624
C 0.968713 1.412461 0.066861
O 1.350189 2.280764 -0.961217
C -0.286390 2.101477 0.588546
O 0.114338 3.235966 1.351088
C -0.841598 4.277255 1.321883
C -1.142523 1.161869 1.447834
C -1.623214 -0.018158 0.600419
C -0.399085 -0.871067 0.065890
C -0.900036 -1.985266 -0.908231
O -1.556200 -3.010961 -0.208854
C 0.259121 -1.629805 1.241097
O -0.119643 -1.459114 2.432548
O 1.234289 -2.598577 0.973396
C 1.929868 -3.297180 1.998031
H -5.395380 -1.295848 -0.552371
H -3.792518 -2.066717 -0.381641
H -4.452390 -1.012248 0.946463
H -4.362191 0.567820 -1.528300
H -2.986803 2.665458 -0.646025
H -2.375474 1.949085 -2.150369
H 0.157844 2.799823 -2.579417
H -0.744475 0.275088 -2.416708
H 0.984483 0.469212 -2.813065
H 2.086656 -1.945090 -2.262102
H 4.427069 -2.652366 -1.798260
H 5.717224 -1.583948 0.037104
H 4.681467 0.224898 1.409467
H 2.531416 1.899089 1.577022
H -0.739186 4.860961 0.381244
H -1.885424 3.913202 1.432211
H -0.639152 4.965385 2.168195
H -0.555022 0.848072 2.331823
H -2.027152 1.699037 1.852698
H -2.225421 -0.660000 1.276558
H -1.590154 -1.587147 -1.678986
H -0.035462 -2.425731 -1.447960
H -1.792357 -3.701124 -0.882047
H 2.653187 -3.997526 1.532387
H 1.213993 -3.879248 2.615783
H 2.486095 -2.577872 2.636441
