29

C 3.781334 0.874579 -0.817288
C 2.692558 0.083960 -0.138304
C 3.031846 -1.225779 0.534456
C 1.434115 0.577322 -0.146506
C 0.251821 -0.126058 0.487422
C -0.973592 0.832257 0.593708
C -2.018565 0.491116 -0.477729
C -3.214064 1.397401 -0.378070
O -3.598405 2.046118 -1.387822
O -3.910909 1.508974 0.822223
C -2.436145 -0.988645 -0.359229
C -1.260846 -1.864927 0.110318
O -0.026954 -1.294089 -0.276650
H 3.538273 0.999613 -1.893794
H 3.867198 1.876559 -0.345846
H 4.766436 0.369238 -0.740257
H 4.110011 -1.467928 0.432337
H 2.454559 -2.053840 0.073692
H 2.799275 -1.168695 1.618239
H 1.261174 1.528004 -0.646297
H 0.542241 -0.419945 1.521184
H -0.676880 1.901726 0.514995
H -1.435002 0.706064 1.599073
H -1.541483 0.641939 -1.473350
H -4.721480 2.111647 0.898366
H -2.792882 -1.342077 -1.351551
H -3.273433 -1.109949 0.363404
H -1.300945 -2.013569 1.214526
H -1.349254 -2.871015 -0.351251
