104

C -4.943852 1.602086 -4.898107
C -4.390102 1.872960 -3.529730
C -4.841848 1.274446 -2.399591
C -5.854666 0.136380 -2.455995
N -6.653836 -0.030293 -1.217222
C -7.932877 0.696257 -1.278456
C -5.909730 0.137776 0.057567
C -5.093419 -1.149093 0.342869
C -4.082514 -1.008818 1.453958
C -2.843079 -0.328508 1.455233
N -2.293693 -0.386292 2.694042
C -3.137448 -1.091819 3.461811
C -2.982820 -1.409170 4.810924
C -3.998878 -2.150642 5.435701
C -5.131960 -2.554016 4.706151
C -5.264816 -2.217335 3.347187
C -4.239213 -1.482453 2.748587
C -2.157825 0.469948 0.349689
C -0.750473 -0.076117 0.153913
C 0.358330 0.760985 0.420330
C 1.638586 0.255196 0.221493
N 2.797932 0.882017 0.467626
C 3.792668 0.008304 0.151847
C 3.226899 -1.204187 -0.277833
C 1.853083 -1.018071 -0.219773
C 0.792237 -1.888295 -0.478638
C -0.530241 -1.415463 -0.291917
O -1.639262 -2.242941 -0.531334
C -1.568325 -3.569957 -1.044939
C 3.913047 -2.519708 -0.504322
C 5.139437 -2.420390 -1.416233
N 6.266553 -1.674945 -0.836386
C 6.876674 -2.228419 0.401831
C 7.149978 -1.088331 1.404114
C 8.141194 -0.097269 0.740319
C 7.624152 0.339504 -0.671571
C 8.585265 -0.145082 -1.782311
C 8.162156 0.309528 -3.181180
C 6.160048 -0.193532 -0.851654
C 5.279311 0.322090 0.352375
C 5.410965 1.846088 0.422942
O 5.201818 2.531924 -0.618686
O 5.708023 2.490007 1.625967
C 5.842676 3.899727 1.733297
C 5.805090 -0.368929 1.667186
C -2.872388 0.573001 -1.025413
C -4.095604 1.528028 -1.102994
C -5.081219 1.454168 0.084550
C -5.987418 2.663584 0.156794
O -6.033940 3.502130 -0.789480
O -6.784646 2.837180 1.289806
C -7.753448 3.872838 1.384711
H -4.931138 0.508595 -5.118037
H -5.979500 1.999748 -4.968443
H -4.322061 2.114813 -5.663286
H -3.556653 2.570634 -3.468341
H -5.308140 -0.806657 -2.654786
H -6.538167 0.266579 -3.322916
H -8.594506 0.199604 -2.020041
H -7.787347 1.749643 -1.601805
H -8.463459 0.671687 -0.299808
H -6.631175 0.190893 0.904332
H -4.608311 -1.557727 -0.554733
H -5.814147 -1.949000 0.610002
H -1.392640 0.046782 2.993054
H -2.110829 -1.086374 5.363641
H -3.911024 -2.411626 6.483933
H -5.903336 -3.135244 5.190817
H -6.132231 -2.547787 2.787532
H -2.081076 1.512839 0.732191
H 0.229170 1.775651 0.778115
H 2.892029 1.847970 0.854492
H 0.982599 -2.898366 -0.812941
H -1.015014 -4.223979 -0.336649
H -2.598999 -3.965838 -1.164061
H -1.066692 -3.572571 -2.039420
H 3.208516 -3.213413 -1.005939
H 4.143462 -2.987624 0.469828
H 4.840330 -1.962461 -2.383689
H 5.485891 -3.449834 -1.653825
H 7.838247 -2.715687 0.134440
H 6.258850 -3.014597 0.877538
H 7.570863 -1.482827 2.354400
H 9.144659 -0.577437 0.675673
H 8.251720 0.798528 1.393193
H 7.638003 1.449105 -0.723892
H 8.680945 -1.254135 -1.764320
H 9.594182 0.274781 -1.579853
H 7.959230 1.403008 -3.191509
H 8.982039 0.097649 -3.899514
H 7.258790 -0.243502 -3.521621
H 5.731711 0.165478 -1.816114
H 6.063060 4.161656 2.785904
H 4.897433 4.396233 1.432482
H 6.673717 4.253893 1.089831
H 5.939797 0.338736 2.513284
H 5.069028 -1.124498 2.029515
H -2.134296 0.981474 -1.754391
H -3.096831 -0.422879 -1.441374
H -3.679772 2.561394 -1.112459
H -4.519547 1.523193 1.032307
H -8.243423 3.823501 2.374880
H -7.266622 4.862866 1.276862
H -8.523920 3.751054 0.596463
