109

C -1.028215 1.331055 0.922125
C -1.542391 0.093967 0.985894
C -1.960407 -0.706620 -0.242875
C -2.989519 0.067495 -1.092970
O -4.180287 0.220246 -0.339054
C -4.819450 1.459371 -0.591537
O -4.331099 2.410013 0.341822
C -4.876846 3.692076 0.090140
C -4.163879 4.729844 0.970415
O -2.791259 4.763464 0.675403
C -6.401555 3.695863 0.349276
O -6.721154 3.547350 1.714727
C -7.087454 2.606775 -0.497513
O -7.146233 3.041738 -1.833668
C -6.340616 1.256578 -0.422133
O -6.598363 0.636881 0.832498
C -7.216929 -0.630738 0.696171
O -6.945702 -1.371131 1.873660
C -7.447472 -2.697255 1.758087
C -6.923586 -3.555594 2.924900
O -7.208913 -2.972988 4.164555
C -8.990720 -2.690657 1.690333
O -9.522125 -2.167717 2.884448
C -9.431510 -1.831524 0.491446
O -10.826972 -1.668055 0.488167
C -8.740869 -0.449938 0.522498
O -9.238389 0.337577 1.575606
O -3.294111 -0.674198 -2.268784
C -2.275860 -1.179023 -3.072858
C -1.047157 -1.392356 -2.575495
C 0.071406 -1.764896 -3.470595
O -0.163315 -2.103939 -4.663924
N 1.430161 -1.697776 -2.988404
C 2.551412 -2.021482 -3.891086
C 3.666361 -0.971499 -3.766847
C 3.957070 -0.722671 -2.321237
C 3.052754 -0.953195 -1.302865
N 3.597639 -0.658027 -0.095879
C 4.838773 -0.206829 -0.365100
C 5.800319 0.222381 0.551047
C 7.048117 0.653552 0.059528
O 8.018360 1.054388 0.987867
C 9.341109 1.495911 0.656382
O 10.056656 0.502948 -0.067850
C 10.216587 -0.684738 0.693142
C 10.845307 -1.755032 -0.207895
O 10.052820 -1.967254 -1.345674
C 11.094299 -0.406927 1.936137
O 11.292412 -1.571172 2.695644
C 10.439058 0.693210 2.793752
O 11.265885 1.048831 3.874977
C 10.108526 1.918677 1.925668
O 9.343806 2.823740 2.675319
C 7.285281 0.665577 -1.346637
C 6.300377 0.214462 -2.244296
C 5.089793 -0.222083 -1.715347
C 1.693649 -1.556036 -1.534279
C 0.611814 -0.696981 -0.853280
C -0.779259 -1.319711 -1.080858
H -0.867839 1.829963 -0.032045
H -0.743437 1.851893 1.833114
H -1.676473 -0.354061 1.971282
H -2.521739 -1.582949 0.164175
H -2.534347 1.039668 -1.401709
H -4.642160 1.798995 -1.641495
H -4.689914 3.992493 -0.966365
H -4.283248 4.464468 2.041573
H -4.618381 5.735714 0.811454
H -2.698553 5.222036 -0.204389
H -6.805176 4.681076 0.024607
H -6.205071 2.785085 2.079052
H -8.126392 2.474931 -0.116201
H -7.860195 2.515720 -2.277972
H -6.687917 0.645788 -1.289587
H -6.787323 -1.188190 -0.172474
H -7.060797 -3.178977 0.829758
H -7.397714 -4.557267 2.881470
H -5.822174 -3.705633 2.815657
H -6.512034 -2.278384 4.323050
H -9.346545 -3.740167 1.535243
H -10.439733 -2.535364 2.980565
H -9.114542 -2.344967 -0.451046
H -11.211366 -2.477636 0.057969
H -8.929253 0.052871 -0.454672
H -10.074850 0.772239 1.237112
H -2.492113 -1.366148 -4.116376
H 2.950696 -3.024202 -3.620872
H 2.232018 -2.056362 -4.951617
H 4.582711 -1.335942 -4.281088
H 3.347463 -0.021689 -4.243750
H 3.158777 -0.761806 0.844945
H 5.589489 0.220805 1.614434
H 9.252154 2.396609 0.005149
H 9.228080 -1.074819 1.016289
H 11.854416 -1.419389 -0.534390
H 10.969943 -2.710187 0.350539
H 9.259118 -2.481542 -1.042745
H 12.088649 -0.043648 1.595663
H 10.395201 -1.926169 2.946977
H 9.486159 0.299032 3.211513
H 12.103452 1.427799 3.504443
H 11.061208 2.404599 1.610185
H 9.366705 3.692137 2.195515
H 8.223381 1.014821 -1.748790
H 6.483527 0.203219 -3.314470
H 1.694604 -2.571282 -1.081678
H 0.832910 -0.661350 0.231807
H 0.644061 0.336118 -1.265035
H -0.693574 -2.375878 -0.739165
