77

C -1.258537 -3.548524 -2.384696
C -2.167107 -2.728431 -1.472909
C -3.100826 -3.661139 -0.619959
C -3.881937 -2.658742 0.297780
O -4.690380 -3.312990 1.235128
O -4.648396 -1.843028 -0.565351
C -3.664018 -1.086269 -1.251640
O -3.043700 -1.915631 -2.225201
C -2.595901 -0.771208 -0.215248
C -2.352646 0.711114 0.150393
O -3.323806 1.200418 1.074000
C -4.617308 1.619665 0.744112
O -4.992247 1.677758 -0.454502
C -5.536058 2.023408 1.818846
C -5.060847 2.752085 2.919079
C -5.947403 3.186692 3.910886
C -7.307096 2.878820 3.819207
C -7.783955 2.144588 2.731938
C -6.903765 1.725377 1.729140
C -2.889931 -1.671122 0.984130
C -1.437380 -2.158731 0.934337
C -1.422174 -1.711169 -0.532303
O -0.138256 -1.238153 -0.937703
C -0.145191 -0.224708 -1.939379
O 0.082441 1.053693 -1.366400
C 1.275727 1.088302 -0.593968
C 1.329954 2.450156 0.121154
O 2.413863 2.529370 1.009536
C 2.512887 0.886540 -1.496030
O 3.673299 0.768497 -0.670908
C 4.968405 1.080589 -1.102451
O 5.151866 1.591954 -2.239971
C 6.122638 0.812817 -0.215508
C 7.430104 1.087405 -0.644539
C 8.525094 0.827205 0.188274
O 9.820973 1.095561 -0.252665
C 8.322389 0.291915 1.467002
O 9.427135 0.041409 2.280396
C 7.019963 0.021182 1.910316
O 6.815266 -0.512566 3.181826
C 5.926472 0.282927 1.071776
C 2.360246 -0.396865 -2.340740
O 3.348973 -0.423131 -3.333712
C 0.955006 -0.502601 -2.981910
O 0.814796 0.364782 -4.080871
H -1.825305 -4.386872 -2.847224
H -0.874289 -2.915189 -3.206611
H -0.407077 -3.969482 -1.805764
H -3.812222 -4.194298 -1.280936
H -2.545058 -4.434061 -0.050403
H -5.384991 -3.799884 0.717876
H -4.104695 -0.197826 -1.744974
H -1.367345 0.797532 0.650021
H -2.350121 1.337619 -0.764484
H -4.014363 3.019182 2.991812
H -5.581098 3.770049 4.747542
H -7.994513 3.215639 4.587098
H -8.836564 1.912729 2.663360
H -7.286891 1.149283 0.894814
H -3.234948 -1.177360 1.914440
H -0.785256 -1.515670 1.567321
H -1.254355 -3.230847 1.141959
H -1.110742 -0.192108 -2.489059
H 1.253326 0.304797 0.199800
H 0.382120 2.619442 0.679740
H 1.426835 3.266670 -0.628278
H 2.258624 1.850553 1.715643
H 2.611771 1.776504 -2.160528
H 7.603295 1.499586 -1.630368
H 9.996958 1.499642 -1.165741
H 9.333173 -0.324173 3.223043
H 5.883802 -0.731086 3.519064
H 4.925917 0.076188 1.433585
H 2.500922 -1.273275 -1.659196
H 3.327213 -1.333683 -3.735255
H 0.846104 -1.533376 -3.365879
H 1.031140 1.284553 -3.773110
