19

O 3.886829 -0.756659 -0.425700
C 3.355211 0.222694 0.164757
O 4.157287 1.145310 0.828167
C 1.894401 0.406982 0.166310
C 1.066352 -0.431970 -0.472637
C -0.408640 -0.271673 -0.502648
C -1.111555 0.475146 0.465965
C -2.504216 0.585911 0.398992
C -3.210886 -0.049973 -0.623745
C -2.527272 -0.804575 -1.578973
C -1.135242 -0.919709 -1.516957
H 5.164980 1.042089 0.843363
H 1.510086 1.272054 0.688015
H 1.488326 -1.255589 -1.037390
H -0.600373 0.954887 1.288616
H -3.036977 1.160078 1.146108
H -4.288680 0.036701 -0.672182
H -3.076187 -1.302064 -2.368127
H -0.623445 -1.509641 -2.267761
