66

C -7.874078 2.004133 -1.069348
C -6.397927 2.007806 -1.487540
C -6.239178 1.600451 -2.958625
C -5.570399 1.116543 -0.580586
C -5.810411 -0.269118 -0.505485
C -5.036097 -1.078366 0.331669
C -4.012386 -0.518122 1.110916
C -3.184412 -1.381695 2.025833
O -1.806077 -1.204227 1.760542
C -1.352538 -2.057079 0.715696
O -0.398924 -1.380017 -0.093891
C 0.731657 -0.960704 0.658304
C 1.609609 -0.062213 -0.222745
O 2.642638 0.504469 0.559577
C 3.623497 1.098077 -0.269694
O 4.539525 0.096392 -0.685880
C 5.479731 0.623426 -1.608380
C 6.337172 -0.534079 -2.127147
C 6.365372 1.701892 -0.932091
O 7.217256 2.293809 -1.880522
C 5.470932 2.795015 -0.317653
O 6.227745 3.729989 0.411094
C 4.357724 2.173957 0.548705
O 4.901956 1.588410 1.708122
C 1.524288 -2.180097 1.202110
O 2.197249 -2.882599 0.182636
C 0.583848 -3.099229 2.013633
O 1.222008 -4.291417 2.405057
C -0.760008 -3.370290 1.297040
O -0.634740 -4.378903 0.317140
C -3.780385 0.863590 1.049635
C -4.548214 1.673299 0.207762
H -8.440039 2.744740 -1.673776
H -8.332427 1.002170 -1.216357
H -7.969169 2.287093 0.001175
H -6.036986 3.057616 -1.400490
H -5.164156 1.611596 -3.243500
H -6.648908 0.584111 -3.139042
H -6.779789 2.316261 -3.613678
H -6.594518 -0.724955 -1.096299
H -5.236486 -2.143033 0.373141
H -3.490387 -2.453773 1.978778
H -3.378351 -1.057158 3.069954
H -2.186892 -2.341143 0.029473
H 0.412456 -0.327900 1.518124
H 2.011627 -0.656900 -1.075451
H 0.973613 0.753076 -0.635019
H 3.150319 1.602820 -1.152086
H 4.957504 1.061747 -2.493320
H 5.683697 -1.322797 -2.558771
H 7.020879 -0.177692 -2.926608
H 6.933564 -0.981541 -1.303597
H 6.957126 1.223265 -0.114453
H 8.084310 1.810990 -1.837997
H 4.980886 3.347993 -1.149923
H 6.728194 3.240943 1.116350
H 3.621816 2.972638 0.815129
H 4.743703 2.217602 2.459266
H 2.300992 -1.800722 1.902820
H 1.558745 -3.054433 -0.552301
H 0.336904 -2.548380 2.949360
H 1.457594 -4.801413 1.587069
H -1.468653 -3.759354 2.061429
H -0.467374 -3.956268 -0.565219
H -2.999634 1.313434 1.650412
H -4.346595 2.736264 0.175053
