92

C 1.698514 -2.553310 3.210505
C 2.707934 -1.549239 2.650031
C 4.096729 -1.684655 3.381908
C 5.017660 -0.668006 2.619068
O 6.352259 -0.733003 3.043229
O 4.464338 0.615046 2.843492
C 3.236920 0.561500 2.134797
O 2.303890 -0.211408 2.884354
C 3.531241 -0.231598 0.868234
C 3.336102 0.489391 -0.480113
O 4.287628 1.541951 -0.635257
C 5.459699 1.434086 -1.395612
O 5.688554 0.390067 -2.066295
C 6.429845 2.549799 -1.406303
C 6.141108 3.746262 -0.724252
C 7.057204 4.802633 -0.729260
C 8.270880 4.673099 -1.408242
C 8.570286 3.488972 -2.086550
C 7.655104 2.431625 -2.088620
C 4.897783 -0.879300 1.078921
C 4.277990 -2.232611 0.709657
C 2.920486 -1.618406 1.085343
O 1.875129 -2.071503 0.225878
C 0.656841 -1.341860 0.293687
O 0.523711 -0.609725 -0.917150
C -0.692385 0.128097 -1.009467
C -0.676472 1.392719 -0.130373
O -1.795133 2.214877 -0.452993
C -2.067051 3.416551 0.210293
O -1.305280 3.812932 1.135093
C -3.251327 4.216799 -0.171598
C -4.093232 3.785160 -1.209899
C -5.211723 4.544290 -1.581345
O -6.042398 4.115010 -2.615448
C -5.501142 5.740692 -0.913237
O -6.620819 6.479627 -1.294508
C -4.667501 6.179439 0.128576
O -4.952570 7.369258 0.796631
C -3.549509 5.417460 0.495601
C -1.960535 -0.742710 -0.776456
O -2.849638 -0.574438 -1.853328
C -1.572181 -2.220286 -0.639295
O -2.716957 -3.009220 -0.307067
C -3.569397 -3.580946 -1.261048
O -3.274231 -3.527854 -2.487701
C -4.816786 -4.247907 -0.826854
C -5.619586 -4.938486 -1.751709
C -6.810558 -5.554408 -1.344072
O -7.596170 -6.238463 -2.271990
C -7.211763 -5.483639 0.002015
O -8.396919 -6.089386 0.424041
C -6.412898 -4.794669 0.931321
O -6.786832 -4.700861 2.272001
C -5.224926 -4.183228 0.515113
C -0.531148 -2.343272 0.483510
O -0.095904 -3.676432 0.610901
H 1.777489 -2.602259 4.316491
H 0.663961 -2.245469 2.976657
H 1.892616 -3.565566 2.797907
H 4.497238 -2.720144 3.377358
H 4.000881 -1.377802 4.447844
H 6.359284 -0.458887 3.998228
H 2.843277 1.581668 1.939541
H 2.337788 0.957904 -0.483034
H 3.379863 -0.224871 -1.330818
H 5.207896 3.867108 -0.188875
H 6.825568 5.722048 -0.204493
H 8.981025 5.489905 -1.406895
H 9.512280 3.391679 -2.610736
H 7.907789 1.522582 -2.620279
H 5.740001 -0.515808 0.456131
H 4.611298 -3.120428 1.283031
H 4.358234 -2.418079 -0.386204
H 0.649477 -0.632609 1.145633
H -0.727839 0.498066 -2.058038
H -0.724320 1.122527 0.945767
H 0.256164 1.966545 -0.316932
H -3.884882 2.861580 -1.735921
H -5.859159 3.256150 -3.122438
H -6.869692 7.351737 -0.843646
H -4.367666 7.705289 1.552139
H -2.916961 5.765205 1.303344
H -2.457502 -0.430884 0.175570
H -3.769024 -0.700946 -1.498020
H -1.118536 -2.578638 -1.590778
H -5.323509 -5.002767 -2.790839
H -7.327409 -6.309098 -3.248673
H -8.999972 -6.595685 -0.214766
H -7.639792 -5.119773 2.622482
H -4.629422 -3.648353 1.243386
H -1.047739 -2.078503 1.433197
H 0.276433 -3.959940 -0.264900
