56

C 4.479429 -2.745581 1.032819
O 3.331735 -2.130939 0.461087
C 2.942461 -0.824047 0.770519
O 3.610603 -0.140750 1.593009
N 1.756701 -0.269974 0.174954
C 1.662844 1.034236 -0.385142
C 0.434948 1.264693 -0.985933
C 0.179171 2.503668 -1.629700
C 1.203673 3.469916 -1.709621
C 2.438926 3.171272 -1.131628
C 2.670769 1.994624 -0.492363
O 3.978144 1.966938 -0.046602
C 4.601814 3.204008 -0.417134
O 3.584461 3.942880 -1.107091
C -0.483029 0.085752 -0.682907
C -1.530861 -0.301576 -1.744672
C -2.626087 0.766390 -1.603148
N -2.504432 1.307319 -0.232335
C -3.797310 1.392002 0.494650
C -3.644142 1.101631 1.990795
C -3.055717 -0.300258 2.235946
C -2.041639 -0.750571 1.134504
C -0.861700 -1.485417 1.810913
C 0.114926 -2.060456 0.787716
C 0.594078 -1.040883 -0.298798
C 1.048083 -1.796141 -1.549893
O 1.380207 -1.157671 -2.585852
O 1.173484 -3.184170 -1.547430
C -2.756661 -1.704602 0.093194
C -2.160724 -1.609985 -1.305001
O -2.243999 -2.550339 -2.079608
C -1.446371 0.511096 0.437894
H 5.390651 -2.167449 0.770381
H 4.578512 -3.775198 0.632244
H 4.372011 -2.797578 2.136972
H -0.772904 2.746393 -2.058894
H 1.038134 4.417397 -2.205280
H 4.927189 3.755382 0.489817
H 5.461186 3.012060 -1.093192
H -1.122295 -0.350629 -2.777107
H -2.494799 1.572550 -2.346658
H -3.633125 0.347236 -1.829445
H -4.566458 0.701292 0.088675
H -4.197869 2.420685 0.374155
H -2.975814 1.869711 2.438844
H -4.632839 1.184504 2.491947
H -2.572472 -0.277322 3.238126
H -3.885285 -1.036225 2.321818
H -1.247217 -2.318752 2.439660
H -0.308447 -0.794036 2.485558
H 0.975138 -2.493824 1.336862
H -0.380692 -2.932359 0.312123
H 1.497914 -3.678969 -2.369533
H -3.834171 -1.459104 0.002071
H -2.724921 -2.757810 0.447867
H -0.925210 1.148980 1.189846
