46

C -2.326323 3.836732 -0.709384
C -2.589363 2.745232 0.022037
C -1.729148 1.487563 -0.045779
C -1.966091 0.869608 -1.448700
C -2.247955 0.535539 1.119253
C -1.725888 -0.923831 1.336978
C -1.895142 -1.847116 0.145613
C -0.970739 -2.630921 -0.484033
C -1.466248 -3.513844 -1.605969
C 0.499645 -2.704850 -0.185376
O 1.236351 -3.476420 -0.858669
O 1.083870 -1.916464 0.801549
C 2.282341 -1.123093 0.683685
C 2.132042 -0.049189 1.799887
C 3.439333 0.675936 2.139148
O 1.089196 0.908017 1.567094
C 0.569214 0.900896 0.239545
O -0.372147 1.944542 0.103369
C 1.709429 0.957189 -0.784455
O 1.207623 1.167534 -2.079254
C 2.431239 -0.424837 -0.723659
O 3.779238 -0.315994 -1.106111
H -2.962022 4.711221 -0.627241
H -1.483113 3.868246 -1.393210
H -3.439374 2.791045 0.697558
H -1.335921 -0.016396 -1.643991
H -1.723265 1.600669 -2.248404
H -3.029630 0.566621 -1.562693
H -2.083564 1.071961 2.081111
H -3.353462 0.443270 1.011025
H -2.358212 -1.362275 2.139884
H -0.729936 -0.930321 1.800573
H -2.921786 -1.902627 -0.200820
H -0.756225 -3.490435 -2.461133
H -2.454736 -3.187420 -1.998442
H -1.558397 -4.557067 -1.236628
H 3.157799 -1.780545 0.878767
H 1.858452 -0.601397 2.727052
H 4.280864 -0.045171 2.217482
H 3.682752 1.451454 1.387257
H 3.330752 1.191448 3.118490
H 0.087189 -0.040731 0.003115
H 2.408165 1.781853 -0.514145
H 1.013380 2.138191 -2.158409
H 1.959981 -1.075399 -1.486954
H 4.239830 0.271575 -0.457018
