68

C 4.477464 0.731232 -0.522553
C 4.381963 0.413430 0.775995
C 3.350739 -0.550242 1.343615
O 3.633507 -0.699306 2.716882
C 3.410104 -1.945890 0.645315
C 4.720599 -2.724973 0.875348
C 5.835804 -2.218937 -0.011126
C 7.000751 -1.692227 0.430846
C 7.327212 -1.588562 1.901034
C 7.994016 -1.196583 -0.589325
C 1.935887 0.067125 1.202876
O 1.554429 0.140300 -0.157708
C 0.327466 0.831940 -0.312967
O -0.276572 0.361525 -1.503267
C -1.615240 0.822705 -1.655691
C -2.611238 -0.116248 -0.948506
O -3.923762 0.154694 -1.406843
C -4.855538 0.115461 -0.341934
O -4.881274 -1.166207 0.255352
C -6.228084 -1.487974 0.526114
C -7.129364 -0.315795 0.112078
O -7.371795 0.518046 1.224488
C -8.471762 -0.771953 -0.508950
O -8.265995 -1.558809 -1.656731
C -6.245621 0.416220 -0.876218
O -6.508938 1.795852 -0.886933
C -1.804333 2.339603 -1.322126
O -2.501477 2.556531 -0.116174
C -0.449235 3.071579 -1.325333
O 0.039325 3.105895 -2.645207
C 0.571232 2.367499 -0.393889
O 1.884537 2.634242 -0.818394
H 5.243284 1.427896 -0.847771
H 3.823307 0.296064 -1.269334
H 5.089573 0.877235 1.458272
H 2.972696 -1.331291 3.102209
H 2.581146 -2.569962 1.047601
H 3.221306 -1.853439 -0.446665
H 4.983474 -2.724272 1.952360
H 4.543208 -3.787010 0.600797
H 5.663307 -2.270443 -1.083534
H 6.571641 -0.960712 2.416878
H 8.321259 -1.124462 2.066813
H 7.343394 -2.601859 2.354234
H 8.904982 -0.782821 -0.112637
H 8.297697 -2.032114 -1.255705
H 7.531531 -0.396474 -1.203494
H 1.944237 1.078044 1.670250
H 1.206582 -0.565617 1.757603
H -0.349162 0.611183 0.547445
H -1.832878 0.720020 -2.743013
H -2.362407 -1.163339 -1.225282
H -2.489977 -0.033867 0.156083
H -4.595424 0.875577 0.434711
H -6.477195 -2.411223 -0.039673
H -6.337799 -1.719434 1.608566
H -7.928998 0.013601 1.874446
H -9.057554 -1.328082 0.261415
H -9.062723 0.122785 -0.796078
H -8.739806 -2.420271 -1.516529
H -6.354159 -0.009926 -1.902084
H -6.023080 2.166496 -1.669740
H -2.427183 2.790949 -2.126315
H -1.930113 2.253511 0.635940
H -0.613468 4.113047 -0.955623
H 0.539355 3.957258 -2.752837
H 0.443652 2.774281 0.637508
H 2.051492 3.598496 -0.650782
