80

C -4.686857 1.648102 0.489283
O -4.288991 0.605769 -0.373547
C -2.900149 0.689951 -0.636354
O -2.608803 1.774765 -1.506520
C -2.230730 1.218221 -2.748112
C -1.377422 2.220882 -3.540871
C -3.588630 0.965066 -3.520388
C -4.193817 -0.349757 -3.058454
O -5.371286 -0.617333 -3.241124
C -3.244086 -1.329424 -2.401572
C -1.993790 -1.305247 -3.283733
C -1.494337 -0.150137 -2.406086
O -0.080907 -0.229393 -2.203710
C 0.499975 0.782356 -1.389663
O 1.238051 1.677849 -2.214743
C 2.491055 1.131442 -2.579911
C 3.027734 1.885145 -3.803299
O 4.248217 1.332524 -4.212555
C 3.449133 1.174408 -1.357362
O 4.128255 2.405222 -1.293111
C 2.659551 0.980262 -0.040064
O 3.472992 0.331962 0.939461
C 4.487821 0.968267 1.663581
O 4.659543 2.214227 1.556633
C 5.348124 0.173383 2.566281
C 6.348204 0.791167 3.335858
C 7.162160 0.031884 4.188245
O 8.151062 0.655377 4.947891
C 6.981270 -1.358871 4.277186
O 7.783996 -2.128415 5.120553
C 5.982875 -1.981694 3.509878
O 5.778849 -3.359690 3.574607
C 5.174345 -1.217723 2.662584
C 1.385784 0.146525 -0.269188
O 1.734102 -1.173297 -0.614915
C -2.402415 -0.624004 -1.284624
C -1.816902 -1.639993 -0.268518
O -2.687730 -1.778271 0.853060
C -3.832416 -2.582760 0.866791
O -3.975672 -3.499713 0.011900
C -4.868315 -2.358335 1.898502
C -6.046366 -3.127508 1.914555
C -7.028853 -2.894302 2.881691
C -6.847483 -1.893485 3.838622
C -5.682441 -1.123744 3.832355
C -4.696534 -1.353122 2.867987
H -5.775359 1.552556 0.677120
H -4.172679 1.577436 1.472337
H -4.510868 2.643028 0.027420
H -2.323212 0.847497 0.306638
H -0.725481 1.691178 -4.268317
H -2.020611 2.932223 -4.102395
H -0.764344 2.844355 -2.861357
H -4.302645 1.795268 -3.326833
H -3.420626 0.909658 -4.618466
H -3.651605 -2.340791 -2.197488
H -1.382067 -2.226717 -3.151220
H -2.124616 -1.060795 -4.362263
H -0.260626 1.389772 -0.862188
H 2.372344 0.069898 -2.904346
H 3.147475 2.966112 -3.568178
H 2.292852 1.792984 -4.633338
H 4.622075 1.957056 -4.889171
H 4.177451 0.332652 -1.460507
H 5.021163 2.270942 -1.705335
H 2.332184 1.971778 0.350836
H 6.497951 1.862467 3.280362
H 8.302539 1.656201 4.903696
H 8.517502 -1.721055 5.688182
H 6.335632 -3.959779 4.170994
H 4.413339 -1.719113 2.077749
H 0.806910 0.146222 0.684923
H 1.917665 -1.658458 0.232839
H -1.613736 -2.630673 -0.730235
H -0.856937 -1.264656 0.114391
H -6.210453 -3.905673 1.178950
H -7.933204 -3.488232 2.886995
H -7.609590 -1.714759 4.584715
H -5.543042 -0.348332 4.574906
H -3.803548 -0.740655 2.879506
