43

C 4.952757 0.916134 -1.839120
O 4.646937 -0.374924 -1.321834
C 3.419739 -0.729818 -0.739010
C 2.353070 0.182320 -0.621033
C 1.140003 -0.201665 -0.018208
C 0.979524 -1.541332 0.404023
C 2.048766 -2.440606 0.301029
C 3.263044 -2.037754 -0.265144
O 4.321989 -2.938483 -0.368774
C -0.334567 -1.996456 0.997023
C -1.507123 -1.290029 0.301360
C -1.305339 0.217391 0.385042
C -2.391098 1.087361 0.661021
C -2.200457 2.482327 0.657130
C -0.918424 2.964889 0.432403
C 0.138365 2.140426 0.205196
C -0.004370 0.743580 0.155095
O 1.281710 2.910491 0.083824
C 0.919973 4.289964 0.217881
O -0.494151 4.279629 0.441052
C -3.729746 0.512747 0.997320
C -3.536354 -0.829541 1.705314
N -2.791655 -1.793348 0.868509
C -3.649376 -2.406067 -0.161097
H 5.992389 0.914552 -2.225723
H 4.873592 1.678478 -1.035398
H 4.264195 1.166135 -2.673721
H 2.463286 1.173523 -1.027204
H 1.935853 -3.459024 0.652413
H 4.241452 -3.893057 -0.038264
H -0.453843 -3.095573 0.874183
H -0.342751 -1.764329 2.084308
H -1.435489 -1.545844 -0.782594
H -3.015421 3.165573 0.860108
H 1.156640 4.840589 -0.716585
H 1.442574 4.740565 1.087474
H -4.283152 1.195848 1.678191
H -4.327904 0.390497 0.070668
H -4.527444 -1.242067 1.996456
H -2.975292 -0.668205 2.652360
H -4.577766 -2.814471 0.292562
H -3.917180 -1.671105 -0.950222
H -3.116959 -3.259321 -0.633491
