48

C 6.201455 -0.305423 -0.094694
C 4.998775 -0.726838 0.716612
C 5.198788 -1.380527 2.059723
C 3.737873 -0.538163 0.269942
C 3.412252 0.118438 -1.054512
C 1.898366 0.033852 -1.410997
C 1.462699 1.462090 -1.513475
C 0.234232 1.918604 -1.792508
C -0.948477 1.020631 -2.032432
O -1.955156 1.268808 -1.070153
C -1.735514 0.508948 0.107586
O -1.993900 -0.872120 -0.138990
C -3.331177 -1.300445 0.110747
C -3.639632 -2.481369 -0.824153
O -3.635218 -2.076866 -2.167697
C -4.395157 -0.173444 -0.029380
O -5.704536 -0.656095 0.159696
C -4.089030 1.007317 0.926386
O -4.845566 0.902829 2.107421
C -2.577723 1.093335 1.257607
O -2.279941 0.387889 2.438059
C 2.617929 2.284885 -1.254280
O 2.636831 3.544045 -1.257726
O 3.724120 1.508718 -0.992022
H 7.149697 -0.535530 0.433914
H 6.173091 0.788476 -0.279402
H 6.213931 -0.845301 -1.064471
H 6.274806 -1.481167 2.312297
H 4.711919 -0.770492 2.849912
H 4.746804 -2.395057 2.054330
H 2.915923 -0.865378 0.902181
H 4.000556 -0.356390 -1.869357
H 1.763690 -0.471243 -2.392024
H 1.299030 -0.495619 -0.639891
H 0.063974 2.987961 -1.828057
H -0.672503 -0.055736 -2.096537
H -1.362635 1.279420 -3.028742
H -0.673863 0.602680 0.432957
H -3.373392 -1.693750 1.150844
H -4.635938 -2.908137 -0.582717
H -2.892751 -3.292371 -0.663465
H -2.683826 -1.999801 -2.440421
H -4.339475 0.211290 -1.071655
H -5.720183 -1.169558 1.009358
H -4.386009 1.941881 0.393078
H -4.833499 1.798724 2.535685
H -2.296154 2.166774 1.380970
H -2.435484 1.009225 3.196700
