70

C 1.092098 1.100622 1.642092
C 0.686401 1.490669 0.428190
C 0.301793 0.547174 -0.704236
C 1.400652 -0.479105 -1.162717
O 2.316487 -0.799016 -0.125313
C 3.531336 -0.069636 -0.245300
O 4.090772 0.068657 1.053053
C 5.238210 0.904958 1.017140
C 5.669005 1.196459 2.459052
O 5.964249 0.004734 3.134324
C 6.378121 0.233081 0.212675
O 7.490637 1.095842 0.142232
C 5.897809 -0.141006 -1.208898
O 5.898618 0.985030 -2.057999
C 4.510044 -0.829424 -1.175738
O 4.626900 -2.179707 -0.791402
O 0.823081 -1.696856 -1.642344
C -0.431682 -1.724749 -2.250175
C -1.386772 -0.883082 -1.836988
C -2.659303 -0.767940 -2.585991
O -3.481471 0.145485 -2.303943
O -2.947775 -1.648555 -3.628618
C -1.120779 -0.079288 -0.575332
C -1.294238 -0.949564 0.711630
C -2.716579 -1.510977 1.013736
N -2.930384 -2.808871 0.338511
C -4.326635 -3.244360 0.389328
C -5.207176 -2.275244 -0.392211
C -5.030626 -0.875741 0.126773
C -6.033865 0.075820 -0.091862
C -5.903690 1.377588 0.405785
O -6.916184 2.299465 0.155643
C -4.764692 1.737773 1.142532
O -4.678108 3.037005 1.664137
C -3.542547 3.557102 2.353079
C -3.744880 0.787824 1.337490
C -3.840071 -0.500464 0.782538
H 1.347651 1.843716 2.389286
H 1.194099 0.052518 1.906735
H 0.622267 2.557042 0.234386
H 0.192500 1.239332 -1.576118
H 1.905600 -0.038473 -2.055239
H 3.332442 0.951441 -0.652787
H 4.990043 1.892108 0.557324
H 6.562815 1.862701 2.459171
H 4.837288 1.725306 2.974796
H 6.169643 0.262833 4.071486
H 6.676265 -0.703484 0.743249
H 8.242826 0.562012 -0.228889
H 6.624400 -0.863706 -1.636762
H 5.159198 1.587647 -1.780288
H 4.100673 -0.823548 -2.209544
H 4.965706 -2.207891 0.139251
H -0.606328 -2.421699 -3.054893
H -3.803890 -1.558875 -4.161929
H -1.833080 0.771776 -0.523757
H -0.560590 -1.787313 0.710426
H -1.041084 -0.329351 1.588963
H -2.730342 -1.726868 2.108402
H -2.629140 -2.778323 -0.655674
H -4.672891 -3.313226 1.446242
H -4.409531 -4.257669 -0.060268
H -4.929459 -2.300178 -1.464656
H -6.265148 -2.593216 -0.304868
H -6.920141 -0.199814 -0.650532
H -6.865841 3.259773 0.477077
H -2.659211 3.549854 1.682912
H -3.340276 2.956784 3.264702
H -3.753508 4.598720 2.661800
H -2.861714 1.048369 1.908563
