51

C -1.229396 -2.755851 0.500906
N -1.664879 -1.404148 0.039711
C -3.072237 -1.243982 0.528594
C -3.617449 0.183363 0.544740
C -2.667983 1.109228 1.290470
C -1.301290 1.119274 0.601334
C -1.393948 1.872515 -0.793602
C -0.016121 2.000578 -1.492079
C 0.991612 1.172125 -0.681619
N 2.315386 1.029433 -1.282496
C 2.810217 -0.205973 -0.782580
C 4.157236 -0.547502 -0.668852
C 4.497573 -1.687570 0.073281
C 3.498505 -2.432458 0.726159
C 2.148788 -2.059933 0.620070
C 1.816794 -0.956203 -0.175537
C 0.481915 -0.314704 -0.501196
C -0.101919 -1.009609 -1.769245
C -1.553059 -1.385150 -1.434376
C -0.699222 -0.357221 0.512561
C 1.120453 1.839756 0.751407
C 1.859053 3.158407 0.729479
O 1.261798 4.238019 0.474479
O 3.230075 3.178809 0.954024
C -0.281275 1.943974 1.428307
H -2.006153 -3.524797 0.283699
H -0.321277 -3.110090 -0.026346
H -1.045245 -2.773960 1.598171
H -3.762724 -1.870241 -0.081530
H -3.159202 -1.616160 1.577189
H -4.595547 0.183147 1.073472
H -3.825066 0.536778 -0.484093
H -3.098246 2.134330 1.318333
H -2.564231 0.758308 2.341593
H -2.100292 1.405854 -1.495598
H -1.796660 2.896883 -0.629481
H 0.294903 3.064862 -1.524604
H -0.072334 1.694417 -2.554243
H 2.919654 1.822726 -1.593133
H 4.925572 0.071397 -1.113588
H 5.536503 -1.972301 0.177009
H 3.774488 -3.285516 1.332355
H 1.409997 -2.599217 1.187543
H 0.447603 -1.951099 -1.996544
H -0.048619 -0.414423 -2.697793
H -2.255939 -0.664547 -1.890911
H -1.815250 -2.367866 -1.891965
H -0.312908 -0.628661 1.522957
H 1.730420 1.169005 1.397073
H -0.220432 1.558368 2.470797
H -0.629642 2.997625 1.505696
