53

C -3.283580 -1.424270 2.078442
C -3.046436 -0.344295 1.005601
C -2.211868 -0.637950 -0.314154
C -2.103049 0.723300 -1.039379
C -1.227801 1.712104 -0.271834
C -1.484283 3.157537 -0.457025
O -2.119241 3.557720 -1.471444
O -1.064817 4.072275 0.514820
C -1.286547 5.472222 0.397588
C -0.135996 1.276731 0.411668
N 1.075930 2.044199 0.398514
C 2.094294 1.106467 0.095460
C 3.405373 1.409560 -0.268508
C 4.271499 0.360128 -0.622667
O 5.589766 0.679720 -0.979203
C 6.572921 -0.276939 -1.360374
C 3.790960 -0.974887 -0.612012
C 2.462146 -1.251697 -0.253364
C 1.623296 -0.186230 0.084524
C 0.198751 -0.203857 0.577366
C 0.198038 -0.766886 2.012240
C -0.087489 -2.273216 1.833591
N -0.729375 -2.381823 0.530144
C -1.592328 -3.429023 0.069312
O -1.580993 -4.562267 0.617883
C -2.561423 -3.124667 -1.054035
O -3.774974 -2.593936 -0.573234
C -2.935315 -1.676815 -1.241835
C -0.737829 -1.134238 -0.184279
H -2.552149 -1.333645 2.901336
H -3.284881 -2.460703 1.714747
H -4.276132 -1.251855 2.546757
H -2.627210 0.530905 1.544292
H -4.056240 -0.013471 0.673842
H -1.660180 0.585411 -2.051055
H -3.119659 1.149616 -1.191850
H -2.376025 5.681800 0.347334
H -0.786470 5.860798 -0.514763
H -0.862290 5.983822 1.285677
H 1.169244 3.067280 0.215142
H 3.747217 2.436600 -0.283352
H 7.522027 0.249835 -1.588542
H 6.753395 -0.990892 -0.529147
H 6.242080 -0.823205 -2.268879
H 4.436196 -1.800923 -0.877408
H 2.100025 -2.270779 -0.242756
H 1.160096 -0.605660 2.548390
H -0.598806 -0.282642 2.609985
H -0.741131 -2.662502 2.640305
H 0.859575 -2.853071 1.827209
H -2.715775 -3.832110 -1.894864
H -3.332883 -1.389132 -2.238221
H -0.319657 -1.304445 -1.205346
