33

C -3.288102 1.543432 0.371541
C -2.500511 0.291890 -0.061648
C -2.399354 0.312768 -1.606383
O -3.231980 -0.835624 0.362329
C -1.083946 0.315800 0.608959
O -1.194757 0.494719 2.001291
C -0.215656 -0.935107 0.308701
C 1.228317 -0.788433 0.833103
O 1.907720 -2.030573 0.769517
C 3.244797 -1.840020 0.495213
O 4.080019 -2.781231 0.475091
C 3.582576 -0.422517 0.240427
C 2.177526 0.217850 0.088227
C 1.859599 0.362224 -1.414947
O 2.133667 1.497949 0.674618
H -4.288554 1.561179 -0.112350
H -3.451457 1.547480 1.470231
H -2.742720 2.470149 0.089657
H -3.410270 0.405335 -2.058511
H -1.782322 1.171607 -1.947663
H -1.955654 -0.622321 -2.003139
H -2.843750 -1.641323 -0.067288
H -0.550952 1.206115 0.214243
H -1.670261 -0.295201 2.369362
H -0.195060 -1.172659 -0.771235
H -0.670340 -1.815736 0.811729
H 1.178881 -0.511505 1.909806
H 4.219143 -0.320928 -0.665766
H 4.126109 -0.019302 1.121708
H 0.874823 0.845460 -1.574360
H 2.621141 1.006345 -1.904790
H 1.864282 -0.628838 -1.917856
H 2.377046 1.411016 1.633109
