75

C -5.116190 1.923547 1.869010
C -4.592284 2.255852 0.682786
C -3.229058 1.754368 0.228037
C -2.844720 2.536462 -1.058167
C -3.313808 0.213474 -0.029934
C -4.321811 -0.187171 -1.124540
C -4.394763 -1.685005 -1.268120
C -5.144633 -2.528264 -0.522584
C -5.109437 -3.995518 -0.863840
C -6.089211 -2.098617 0.543703
O -6.070010 -0.932383 1.016753
O -7.018963 -3.008247 1.041414
O -2.328794 2.045902 1.298512
C -0.959513 1.757751 1.049659
O -0.235430 2.965405 1.146977
C 1.171201 2.827577 0.949074
C 1.879844 3.606942 2.060581
C 1.739737 1.364808 0.855905
O 1.538846 0.839495 -0.457341
C 2.664221 0.875933 -1.351744
C 3.307865 2.285992 -1.458356
C 2.103665 0.541208 -2.729726
C 2.853979 0.436690 -3.835732
C 3.762294 -0.168286 -0.958625
C 3.308052 -1.639602 -1.020770
C 4.466493 -2.588031 -0.833283
C 5.102921 -2.829457 0.333246
C 4.734960 -2.122417 1.616451
C 6.262152 -3.754969 0.350767
O 6.973181 -3.861057 1.386778
O 6.580336 -4.516520 -0.772436
C 1.043126 0.455792 1.909878
O 1.219411 -0.903004 1.602058
C -0.462193 0.778972 2.121710
O -0.641958 1.342548 3.399024
H -4.584851 1.270178 2.555292
H -6.087868 2.310046 2.159977
H -5.166594 2.927145 0.048612
H -2.559082 3.579908 -0.799836
H -2.000265 2.061256 -1.599909
H -3.695931 2.580648 -1.771974
H -2.324725 -0.187064 -0.334945
H -3.570582 -0.298624 0.921536
H -5.328506 0.246941 -0.959164
H -3.964607 0.219180 -2.094278
H -3.789319 -2.103532 -2.064926
H -5.248744 -4.612021 0.049647
H -5.922350 -4.226134 -1.584125
H -4.135045 -4.288590 -1.312389
H -7.674605 -2.741183 1.765821
H -0.790711 1.307900 0.051436
H 1.400471 3.363457 0.010395
H 1.659407 3.156035 3.051225
H 1.525500 4.660131 2.067363
H 2.977743 3.610297 1.897462
H 2.816067 1.372462 1.126372
H 4.168116 2.275774 -2.160977
H 3.709828 2.641815 -0.489267
H 2.576363 3.023415 -1.851402
H 1.034162 0.371152 -2.827628
H 3.927719 0.587010 -3.812357
H 2.387405 0.193646 -4.785341
H 4.154928 0.053682 0.049862
H 4.632188 -0.054608 -1.642535
H 2.877147 -1.849985 -2.021096
H 2.513342 -1.856407 -0.289657
H 4.781706 -3.118982 -1.725055
H 3.657888 -1.876193 1.664679
H 4.948347 -2.771422 2.491894
H 5.333213 -1.192475 1.714804
H 7.368943 -5.152166 -0.763508
H 1.569719 0.624364 2.876304
H 0.631061 -1.116526 0.830441
H -1.061205 -0.160562 2.047821
H -1.585782 1.179864 3.663185
