67

C 7.293703 1.724972 -1.114506
C 6.091079 1.631043 -0.217134
C 5.299215 2.673158 0.019012
C 4.107130 2.305011 0.829272
C 4.483688 0.922099 1.383939
C 3.309261 -0.014068 1.788372
C 2.065143 0.030620 0.892357
O 1.221433 -1.054824 1.224943
C 0.174642 -1.201512 0.279340
O -0.971569 -1.663010 0.977359
C -2.109811 -1.816395 0.136815
C -2.685940 -0.459509 -0.331479
O -4.013439 -0.620084 -0.801854
C -4.962108 -0.253112 0.184366
O -6.196614 -0.866374 -0.118363
C -7.214613 0.102254 0.016016
C -6.635196 1.362803 0.653698
O -6.752124 1.238701 2.053456
C -7.368339 2.640553 0.175018
O -6.796950 3.792226 0.737591
C -5.175069 1.263746 0.232754
O -4.926525 1.864930 -1.020861
C -1.851355 -2.813295 -1.017512
O -1.757910 -4.109610 -0.481068
C -0.556281 -2.456173 -1.777266
O -0.212244 -3.475998 -2.679765
C 0.602045 -2.221508 -0.798495
O 0.979935 -3.435710 -0.199437
C 5.556182 0.360342 0.395702
C 6.655484 -0.408565 1.157938
C 4.978416 -0.522869 -0.731958
H 6.978945 2.065776 -2.123851
H 7.796779 0.741667 -1.217774
H 8.019450 2.453183 -0.692119
H 5.464509 3.662918 -0.395685
H 3.231020 2.276766 0.151823
H 3.937749 3.041840 1.643370
H 5.015637 1.138027 2.341973
H 2.982697 0.261325 2.814751
H 3.681730 -1.058068 1.855958
H 2.363353 -0.011357 -0.174315
H 1.524168 0.985913 1.077517
H -0.060689 -0.226400 -0.210932
H -2.898247 -2.274168 0.773689
H -2.594778 0.287726 0.491601
H -2.087410 -0.055360 -1.171863
H -4.659798 -0.616532 1.196542
H -7.623413 0.316362 -0.996300
H -8.041778 -0.311793 0.631876
H -6.269606 1.998613 2.470019
H -7.378081 2.716793 -0.937168
H -8.427954 2.584770 0.503524
H -6.005980 4.021247 0.184222
H -4.502886 1.732707 0.984622
H -5.480390 1.407116 -1.705276
H -2.711048 -2.766655 -1.727351
H -2.001366 -4.744651 -1.204504
H -0.717815 -1.512670 -2.347749
H -0.867011 -3.431902 -3.424972
H 1.456908 -1.807769 -1.382491
H 1.920965 -3.331107 0.098817
H 6.207153 -1.246364 1.732687
H 7.404747 -0.836978 0.459531
H 7.184132 0.262343 1.869259
H 4.257229 0.050182 -1.353361
H 4.480090 -1.424759 -0.320787
H 5.789721 -0.868584 -1.408075
