75

C -1.492066 -4.644236 1.334016
C -2.330523 -3.380007 1.165970
C -3.351881 -3.208066 2.350609
C -4.062493 -1.844392 2.030090
O -4.940850 -1.446954 3.047301
O -4.740624 -2.035131 0.803644
C -3.680194 -2.171206 -0.129333
O -3.116439 -3.466156 -0.008148
C -2.601105 -1.211830 0.333999
C -2.169634 -0.114669 -0.654292
O -3.297546 0.681646 -1.004152
C -3.221953 1.752239 -1.900067
O -2.119789 2.046305 -2.442099
C -4.437686 2.538259 -2.206372
C -5.665930 2.209040 -1.602912
C -6.814815 2.953982 -1.885638
C -6.750745 4.032785 -2.770863
C -5.537731 4.367479 -3.376846
C -4.385672 3.626310 -3.098130
C -3.005956 -0.737079 1.720796
C -1.595370 -1.090939 2.213938
C -1.506636 -2.046562 0.998626
O -0.319171 -2.102636 0.215243
C 0.851483 -2.234179 1.008856
O 1.257101 -0.949088 1.481837
C 2.337387 -0.346882 0.778722
C 2.334439 1.157263 1.095529
O 3.449259 1.817529 0.496706
C 4.758665 1.724260 0.986635
O 4.996926 1.067796 2.038200
C 5.859538 2.410127 0.275778
C 7.178510 2.346869 0.763003
C 8.212036 3.013011 0.096875
C 7.942221 3.749070 -1.065025
O 8.962775 4.422050 -1.733656
C 6.635912 3.809466 -1.559544
C 5.600538 3.143952 -0.895733
C 2.280046 -0.603921 -0.747189
O 1.092303 -0.057318 -1.266667
C 2.365396 -2.124481 -1.038148
O 1.570923 -2.447822 -2.153698
C 1.948745 -2.962166 0.193441
O 1.514450 -4.236490 -0.205415
H -0.849188 -4.571578 2.234352
H -2.157636 -5.525682 1.452047
H -0.871330 -4.809303 0.432439
H -2.868171 -3.220357 3.349333
H -4.098347 -4.032870 2.337277
H -5.658177 -2.131969 3.088151
H -4.031571 -1.985257 -1.166409
H -1.389770 0.531109 -0.194895
H -1.750297 -0.588964 -1.568655
H -5.739602 1.377609 -0.912629
H -7.756208 2.694297 -1.419463
H -7.640859 4.609464 -2.985987
H -5.489351 5.204171 -4.062120
H -3.456052 3.907453 -3.575689
H -3.334698 0.322496 1.794036
H -0.941849 -0.196970 2.127908
H -1.518111 -1.549162 3.219340
H 0.659935 -2.865633 1.904151
H 3.289967 -0.762991 1.176161
H 2.350244 1.314598 2.196036
H 1.398870 1.617554 0.713028
H 7.413742 1.783018 1.658548
H 9.221124 2.956687 0.485456
H 9.916563 4.410712 -1.392922
H 6.422876 4.373726 -2.458316
H 4.597774 3.207699 -1.299042
H 3.159696 -0.106991 -1.222036
H 1.260940 0.152203 -2.222317
H 3.432429 -2.364887 -1.262706
H 1.974022 -3.250152 -2.579056
H 2.845783 -3.076630 0.848168
H 1.603409 -4.830626 0.585395
