70

C -1.782027 6.781832 -2.966259
O -1.832876 5.399895 -2.630217
C -0.689619 4.595380 -2.577243
O 0.440262 5.086104 -2.852988
C -0.801001 3.168556 -2.194985
C -2.010757 2.615213 -2.018005
O -2.142552 1.278550 -1.643642
C -1.073631 0.565290 -1.029211
O -1.370763 -0.819540 -1.044058
C -2.130509 -1.190798 0.092478
O -3.400519 -0.561752 0.045306
C -4.055722 -0.689613 1.297533
C -5.425276 -0.008440 1.200487
O -6.207400 -0.628146 0.215672
C -4.184356 -2.182936 1.746776
O -3.412854 -2.403928 2.899907
C -3.704474 -3.139041 0.635728
O -4.617815 -3.121861 -0.434075
C -2.299079 -2.733071 0.130526
O -2.066372 -3.290452 -1.139340
C 0.228082 0.813300 -1.814669
C 1.421595 0.440816 -0.984373
C 1.878149 -0.990358 -0.774464
N 2.626721 -1.466127 -1.961354
C 4.032751 -1.005795 -1.990179
C 4.843301 -1.542431 -0.792048
C 4.055693 -1.346770 0.461655
C 2.689457 -1.159297 0.482417
N 2.221281 -1.079817 1.750579
C 3.305334 -1.244655 2.535309
C 3.348247 -1.251885 3.929388
C 4.598280 -1.449815 4.547647
C 5.764387 -1.633701 3.768869
C 5.694136 -1.620387 2.363506
C 4.444028 -1.419968 1.780777
C 2.061700 1.522289 -0.539161
C 1.406351 2.781412 -0.979448
C 0.456588 2.318638 -2.092218
H -1.214791 7.341144 -2.191400
H -1.293779 6.915494 -3.955624
H -2.815208 7.182904 -3.017020
H -2.913220 3.189134 -2.177062
H -0.938398 0.966476 0.006837
H -1.570121 -0.894790 1.015907
H -3.483567 -0.116573 2.064438
H -5.278532 1.065119 0.940383
H -5.943522 -0.063266 2.185165
H -7.051704 -0.109701 0.169014
H -5.245419 -2.441689 1.976268
H -3.912946 -2.003762 3.657787
H -3.640463 -4.175961 1.044412
H -5.408198 -3.650922 -0.146563
H -1.538788 -3.131963 0.843479
H -1.908802 -4.261336 -1.001794
H 0.218705 0.243753 -2.770472
H 0.974459 -1.625566 -0.658678
H 2.625301 -2.514060 -1.962172
H 4.508347 -1.356804 -2.932371
H 4.065842 0.106209 -2.004902
H 5.817389 -1.012234 -0.724013
H 5.023229 -2.628847 -0.927309
H 1.234581 -0.915108 2.049794
H 2.450193 -1.111948 4.519602
H 4.665763 -1.461968 5.629045
H 6.718760 -1.783979 4.256837
H 6.581395 -1.755189 1.757422
H 2.955161 1.498621 0.077039
H 0.849136 3.221521 -0.123018
H 2.162288 3.500681 -1.362162
H 0.998164 2.397917 -3.062621
