30

C 3.870555 1.156097 0.396635
C 2.883463 0.818445 -0.442767
C 1.717739 -0.074351 -0.035970
C 2.239585 -1.490498 0.305249
O 1.061373 0.497702 1.072761
C 0.716322 -0.134166 -1.225682
C -0.508696 -1.053444 -1.036698
C -1.372373 -0.657859 0.136787
C -2.344735 0.281289 0.097086
C -2.699825 1.012389 -1.176752
C -3.103155 0.596920 1.366113
O -3.951704 -0.468062 1.700885
H 4.673648 1.800973 0.054844
H 3.893737 0.799433 1.420761
H 2.924963 1.218884 -1.452864
H 1.431908 -2.111218 0.745513
H 2.630558 -1.993506 -0.605264
H 3.056853 -1.446202 1.055565
H 1.626553 0.368354 1.878380
H 0.363375 0.894916 -1.449248
H 1.254656 -0.486548 -2.133928
H -1.107951 -1.060167 -1.970996
H -0.172536 -2.101514 -0.897318
H -1.175228 -1.169747 1.075401
H -3.024450 0.289073 -1.953416
H -1.830505 1.591752 -1.546057
H -3.535450 1.724729 -1.016056
H -2.389641 0.813983 2.194587
H -3.724354 1.507609 1.237298
H -3.404686 -1.125267 2.205152
