45

C -1.834810 1.818802 3.011914
O -1.411949 1.181600 1.813133
C -1.955626 -0.028725 1.372802
O -2.848980 -0.614272 2.043941
C -1.492254 -0.619933 0.070802
C -1.981545 0.223891 -1.115211
C -3.485726 0.215454 -1.227126
C -4.141381 -0.856982 -1.851391
C -5.536530 -0.882619 -1.926388
C -6.292377 0.158672 -1.370764
O -7.684034 0.136750 -1.442593
C -5.645910 1.227649 -0.736626
O -6.400249 2.258565 -0.179295
C -4.245829 1.253533 -0.663820
O -0.066061 -0.666764 0.044400
C 0.692926 -1.536666 0.838287
O 0.125225 -2.360177 1.606027
C 2.162528 -1.503666 0.784444
C 2.822616 -0.630672 0.011403
C 4.302432 -0.551321 -0.064771
C 5.138288 -1.630174 0.284699
C 6.526921 -1.509662 0.184909
C 7.103761 -0.318341 -0.272595
O 8.489569 -0.202074 -0.368912
C 6.278997 0.757781 -0.637866
O 6.821176 1.955671 -1.102529
C 4.888553 0.634630 -0.537746
H -2.916701 2.062630 2.950521
H -1.261393 2.758676 3.146826
H -1.647783 1.154421 3.882003
H -1.889872 -1.654512 -0.040477
H -1.545367 -0.184928 -2.053042
H -1.605881 1.266863 -1.018728
H -3.571489 -1.673552 -2.277351
H -6.029758 -1.714142 -2.413477
H -8.179479 -0.623289 -1.894004
H -5.961582 3.043884 0.287357
H -3.751512 2.077975 -0.164348
H 2.698643 -2.196547 1.418266
H 2.256214 0.092401 -0.564419
H 4.730376 -2.576069 0.612184
H 7.155317 -2.348152 0.457466
H 9.105257 -0.964976 -0.112362
H 7.820406 2.094702 -1.193466
H 4.264871 1.473666 -0.823112
