40

C 6.020735 -0.894286 0.899457
C 4.793521 -0.325274 0.245351
N 4.963576 0.515856 -0.806598
C 3.923420 1.066492 -1.475700
C 2.603815 0.797476 -1.082351
C 1.510342 1.383808 -1.753586
O 1.724440 2.157750 -2.729644
N 0.222459 1.129805 -1.349570
C -0.009044 0.349979 -0.237193
C 1.054973 -0.244014 0.452958
C 2.378362 -0.057404 0.019768
C 3.488415 -0.659753 0.677934
C 3.324554 -1.640276 1.779624
O 2.457378 -2.551394 1.717669
C -1.402405 0.107950 0.176700
N -1.847365 -0.516052 1.294709
C -3.189075 -0.547590 1.164753
C -4.109477 -1.115784 2.044379
C -5.471460 -1.069419 1.692310
C -5.879129 -0.469391 0.479330
C -4.929671 0.093447 -0.393197
C -3.590491 0.041741 -0.011793
C -2.444477 0.479523 -0.635564
C -2.233397 1.051967 -1.993506
C -0.904922 1.838471 -2.020822
H 5.980281 -2.003889 0.887858
H 6.091836 -0.533079 1.946715
H 6.936374 -0.574825 0.357538
H 4.135761 1.724290 -2.308794
H 0.839973 -0.832337 1.329533
H 3.999917 -1.624010 2.624476
H -1.287995 -0.908021 2.083852
H -3.787952 -1.583075 2.966149
H -6.211546 -1.501408 2.353230
H -6.929064 -0.444774 0.218222
H -5.232086 0.550899 -1.326244
H -3.075493 1.725315 -2.260971
H -2.188929 0.220435 -2.728959
H -1.056592 2.818123 -1.517096
H -0.669562 2.042728 -3.088042
