52

C -0.660337 -1.552997 2.466131
C -2.024062 -1.045336 2.041890
C -3.215542 -1.536520 2.843216
C -2.181022 -0.159725 1.002582
C -3.576842 0.414333 0.749273
C -3.703361 1.400710 -0.412781
C -2.454335 2.284068 -0.562319
C -2.674439 3.325958 -1.679302
O -2.172366 2.958046 0.644242
C -1.263399 1.368026 -0.909824
O -1.497197 0.691823 -2.124849
C -0.954045 0.334077 0.211302
O -0.296238 -0.794532 -0.350952
C 1.090526 -0.562672 -0.545245
O 1.751321 -0.494062 0.705331
C 3.047330 0.071235 0.562085
C 3.755174 -0.030384 1.926027
O 4.913311 0.759825 1.955326
C 3.856079 -0.583028 -0.613287
O 5.203518 -0.796605 -0.272811
C 3.207104 -1.904448 -1.083554
O 3.441913 -2.936775 -0.153553
C 1.691380 -1.718207 -1.379494
O 0.993174 -2.913841 -1.134792
H -0.713462 -2.155592 3.395380
H -0.228028 -2.206743 1.682277
H 0.017776 -0.701923 2.680002
H -3.707597 -0.686281 3.359518
H -2.921953 -2.271329 3.620977
H -3.943318 -2.043648 2.176459
H -4.292185 -0.413432 0.559891
H -3.905294 0.943043 1.670265
H -3.889403 0.834157 -1.352089
H -4.601204 2.036547 -0.245371
H -2.934610 2.835160 -2.640944
H -1.756938 3.934166 -1.824413
H -3.505420 4.012570 -1.411080
H -2.972522 3.492191 0.890507
H -0.361624 2.020022 -1.010459
H -1.072829 1.225149 -2.846007
H -0.310644 0.855608 0.958047
H 1.237116 0.379922 -1.126376
H 2.929912 1.159120 0.346903
H 3.060952 0.294649 2.734530
H 4.032013 -1.085963 2.133626
H 4.613172 1.704032 2.015632
H 3.814803 0.129736 -1.471718
H 5.696167 -0.945429 -1.121741
H 3.700197 -2.207502 -2.033076
H 2.931084 -2.732164 0.670259
H 1.567783 -1.442923 -2.454048
H 1.238416 -3.542114 -1.864052
