19

O -1.097515 2.649068 -0.908440
C -1.157810 1.475338 -0.456234
C -2.420066 0.774601 -0.074760
C -1.949806 -0.617517 0.412319
C -0.461097 -0.582136 0.263486
C 0.441906 -1.602342 0.569667
C 1.812363 -1.376333 0.359037
C 2.261483 -0.141771 -0.151674
O 3.624355 0.062622 -0.353388
C 1.333476 0.872974 -0.453504
C -0.020921 0.618413 -0.233465
H -2.933575 1.327787 0.740612
H -3.088005 0.681386 -0.957768
H -2.224346 -0.777972 1.477072
H -2.378701 -1.424044 -0.220436
H 0.093876 -2.549237 0.961700
H 2.525503 -2.156887 0.591270
H 3.979264 0.938516 -0.719031
H 1.659616 1.827535 -0.846462
