141

C -1.254150 2.558039 -5.673998
C -1.528574 2.237195 -4.243083
O -2.378028 2.917185 -3.604821
O -0.875196 1.156253 -3.640736
C -1.028946 0.799749 -2.264722
C 0.075364 1.456777 -1.397306
C 0.035364 2.987239 -1.475008
O 1.350696 1.019958 -1.836831
C 1.525842 -0.354606 -1.528842
O 2.835143 -0.755194 -1.908973
C 3.807568 -0.293655 -0.987823
C 4.114094 1.167297 -1.222536
C 4.304962 2.111439 -0.271907
C 4.615005 3.518079 -0.729540
C 4.286391 1.840929 1.226013
C 5.704852 1.824084 1.812802
C 6.557078 0.740446 1.187952
C 7.783440 0.943416 0.655487
C 8.452529 2.298940 0.662078
C 8.562061 -0.215188 0.083806
O 9.596698 -0.552946 0.982646
C 10.616304 -1.281879 0.324644
O 11.315485 -0.448355 -0.597493
C 12.232584 0.394142 0.069415
C 12.672139 1.493959 -0.896149
C 13.447194 -0.432516 0.567084
O 13.978008 0.159341 1.726482
C 13.032434 -1.890889 0.879580
O 13.186153 -2.676412 -0.276577
C 11.563731 -1.952480 1.363767
O 11.452359 -1.316691 2.611185
C 0.524873 -1.203702 -2.342991
O 0.663217 -2.574009 -2.060772
C -0.933230 -0.736354 -2.136617
O -1.401327 -1.128528 -0.852221
C -2.680933 -1.740739 -0.911204
O -2.516638 -3.141630 -0.825635
C -3.728564 -3.838085 -1.099902
C -3.739414 -4.312962 -2.558651
C -5.032643 -3.077833 -0.669640
O -5.535412 -2.268935 -1.705099
C -4.726651 -2.200346 0.560230
O -5.890599 -1.465664 0.914859
C -6.449409 -1.836346 2.170617
O -6.908281 -0.645259 2.786038
C -7.434636 -0.865284 4.093075
C -6.318670 -1.004295 5.139822
C -8.455755 -2.034925 4.165440
O -9.596290 -1.638546 4.887830
C -8.871005 -2.434005 2.741119
O -9.839364 -3.455852 2.738696
C -7.626757 -2.835952 1.925883
O -7.232764 -4.140262 2.290805
C -3.537760 -1.235604 0.269829
O -3.979348 0.084239 -0.051931
C -4.312544 1.050616 0.899910
O -4.416878 0.730383 2.113687
C -4.478060 2.463524 0.501163
C -3.977431 3.532131 1.440171
C -4.982144 2.861382 -0.685808
C -5.756868 1.997543 -1.652563
C -7.258470 2.314093 -1.577623
C -7.880819 1.737570 -0.317628
C -7.915103 2.577651 0.930815
C -8.366203 0.479463 -0.259783
C -8.460128 -0.453529 -1.431395
O -9.527272 -0.062011 -2.249911
H -2.033539 2.099926 -6.315905
H -1.258010 3.657071 -5.822982
H -0.260521 2.163747 -5.966265
H -2.035403 1.107589 -1.896863
H -0.094047 1.199272 -0.323945
H -0.976433 3.360655 -1.209960
H 0.771961 3.410896 -0.754049
H 0.304231 3.342337 -2.491849
H 1.348110 -0.545090 -0.440075
H 4.743776 -0.854515 -1.187278
H 3.527166 -0.558126 0.049231
H 4.215220 1.465049 -2.262412
H 5.552253 3.520353 -1.324675
H 4.746903 4.206785 0.134331
H 3.780482 3.902773 -1.356445
H 3.718274 2.658306 1.719744
H 3.753628 0.916751 1.507805
H 5.635319 1.620484 2.903112
H 6.146508 2.833448 1.702248
H 6.149227 -0.267654 1.206895
H 9.500029 2.222690 0.306763
H 7.906494 2.989357 -0.015381
H 8.468008 2.713619 1.686989
H 8.943025 0.100274 -0.913223
H 7.903955 -1.097990 -0.074457
H 10.163782 -2.114438 -0.265228
H 11.742758 0.900569 0.930337
H 11.794133 2.107280 -1.190963
H 13.415164 2.164943 -0.410816
H 13.122682 1.055157 -1.815286
H 14.239239 -0.474364 -0.220004
H 14.546469 0.917950 1.427167
H 13.702411 -2.296450 1.680296
H 13.159565 -3.623647 0.017369
H 11.264736 -3.021248 1.479643
H 11.866528 -1.919191 3.283025
H 0.776211 -1.062949 -3.419934
H 0.544803 -2.699745 -1.086388
H -1.505789 -1.187542 -2.980821
H -3.235595 -1.472200 -1.845486
H -3.697160 -4.758964 -0.479173
H -2.839376 -4.933678 -2.757737
H -3.727672 -3.448210 -3.253168
H -4.642314 -4.932998 -2.753804
H -5.809526 -3.823992 -0.399764
H -5.996125 -2.881892 -2.343158
H -4.376356 -2.905651 1.351331
H -5.697617 -2.298889 2.857683
H -7.981350 0.066921 4.352834
H -6.736416 -0.870730 6.161448
H -5.832765 -2.000745 5.090573
H -5.544462 -0.226381 4.967503
H -7.990754 -2.930584 4.645316
H -9.455911 -1.912446 5.830095
H -9.335343 -1.542177 2.259732
H -9.509273 -4.195115 3.313950
H -7.921913 -2.823081 0.851384
H -6.542164 -4.432549 1.642815
H -2.889834 -1.194959 1.174793
H -4.709036 4.372213 1.489603
H -3.003854 3.920559 1.082374
H -3.848455 3.148699 2.474680
H -4.997162 3.921876 -0.907802
H -5.595956 0.912823 -1.508583
H -5.397864 2.235118 -2.676594
H -7.403931 3.411440 -1.599993
H -7.768951 1.929752 -2.483014
H -7.465160 3.576756 0.756683
H -8.970401 2.720956 1.249149
H -7.348631 2.074641 1.743988
H -8.737184 0.109961 0.689534
H -8.637864 -1.483362 -1.058047
H -7.511197 -0.455498 -2.016456
H -9.591041 -0.743541 -2.969650
