51

C -4.662793 -0.124585 -0.605686
C -3.649809 0.675462 0.228435
O -3.731002 2.035160 -0.123139
C -2.186724 0.157540 0.082014
C -2.061100 -1.338307 0.505073
N -0.648476 -1.863218 0.526855
C -0.619087 -3.055992 1.412133
C -0.212796 -2.263618 -0.837235
C 0.540240 -1.104550 -1.460991
C 1.056886 -0.278769 -0.280839
C 0.814366 1.207926 -0.514999
C -0.284291 1.843454 -0.051724
C -0.561104 3.268094 -0.349164
O -0.082586 3.812733 -1.380286
O -1.394816 4.006897 0.485288
C -1.198083 1.071964 0.888014
C -0.301122 0.252828 1.831532
C 0.358042 -0.855709 0.990416
N 2.027053 1.883118 -0.865016
C 3.060590 0.936818 -0.632662
C 4.442295 1.162100 -0.725682
O 4.969346 2.395489 -1.105475
C 5.310481 0.097710 -0.429662
C 4.799023 -1.159410 -0.057423
C 3.414096 -1.363757 0.029364
C 2.560622 -0.290890 -0.243125
H -4.315791 -0.223070 -1.656345
H -4.821753 -1.133430 -0.171876
H -5.643894 0.396218 -0.604015
H -3.950756 0.588071 1.295508
H -3.455957 2.115133 -1.074306
H -1.947936 0.207798 -1.000600
H -2.694392 -1.971666 -0.153052
H -2.524418 -1.428146 1.515044
H -1.340585 -3.827153 1.059815
H 0.391882 -3.522023 1.439575
H -0.882202 -2.780893 2.457801
H 0.492332 -3.127188 -0.802979
H -1.055754 -2.576681 -1.492761
H 1.355807 -1.482086 -2.118704
H -0.146774 -0.519621 -2.109088
H -1.607683 4.976242 0.282446
H -1.756152 1.781060 1.537372
H -0.891637 -0.182128 2.666796
H 0.479149 0.901309 2.290439
H 1.131374 -1.330629 1.638300
H 2.166407 2.914567 -0.926995
H 4.383488 3.184113 -1.347291
H 6.381491 0.241025 -0.494784
H 5.477472 -1.974955 0.156586
H 3.017030 -2.334355 0.297097
