44

C -1.613999 -0.741314 -2.230782
C -1.290873 -1.270610 -0.825487
C -1.371809 -0.209061 0.322364
C -2.838526 0.341566 0.369077
C -3.000025 1.579936 1.263492
C -2.113748 2.722751 0.767183
N -0.778095 2.247154 0.407230
C 0.267585 3.048631 0.132870
C 1.323636 2.299776 -0.332259
C 0.896832 0.985777 -0.354947
C -0.425196 0.975499 0.102538
C 1.745754 -0.130167 -0.804023
C 1.836775 -0.415901 -2.175279
C 2.726354 -1.389953 -2.635347
C 3.558612 -2.058503 -1.735204
C 3.501971 -1.755384 -0.372638
C 2.592068 -0.801117 0.101724
N 2.563037 -0.492551 1.499210
C 1.375580 -0.617621 2.290411
O 1.287061 0.023695 3.371507
C 0.280005 -1.578292 1.910679
C -1.085611 -0.892261 1.705720
H -1.173070 0.261984 -2.400700
H -1.202731 -1.437715 -2.992009
H -2.711182 -0.690348 -2.388813
H -0.289336 -1.731025 -0.874014
H -1.992952 -2.104472 -0.604423
H -3.179918 0.645105 -0.641854
H -3.539604 -0.449610 0.714848
H -4.060918 1.910926 1.237079
H -2.765847 1.349427 2.321662
H -2.037192 3.499900 1.558317
H -2.582206 3.184255 -0.129335
H 0.257902 4.125905 0.239009
H 2.293290 2.672268 -0.635561
H 1.229455 0.125213 -2.889631
H 2.784075 -1.612971 -3.692848
H 4.256048 -2.803894 -2.094893
H 4.159274 -2.269423 0.317337
H 3.452786 -0.210132 1.968320
H 0.567994 -2.208219 1.049808
H 0.174970 -2.288893 2.759129
H -1.217491 -0.166093 2.532820
H -1.860738 -1.674237 1.867715
