53

C 2.894887 3.866220 -1.268609
C 1.810871 2.827286 -1.507256
O 1.861650 1.861557 -0.477581
C 0.792913 0.939603 -0.585727
C -0.308905 1.330864 0.391188
C -1.540710 0.367969 0.382007
C -2.370082 0.691970 1.682069
C -2.958881 2.106842 1.768496
C -2.385405 0.618421 -0.895829
C -3.658933 -0.234495 -0.940636
C -3.475947 -1.643352 -0.343740
N -2.068322 -2.074441 -0.260982
C -1.510920 -2.479838 -1.562543
C -0.060938 -2.024520 -1.622681
C 0.256232 -1.522455 -0.217810
C 0.961710 -2.591389 0.582398
O 0.504826 -3.736878 0.842991
C 2.249483 -2.096463 1.002894
C 3.244953 -2.732078 1.743044
C 4.435995 -2.034240 1.985131
C 4.610307 -0.735134 1.474257
C 3.591820 -0.119336 0.726280
C 2.390410 -0.819346 0.515433
N 1.226739 -0.413362 -0.235774
C -1.113324 -1.165445 0.419414
H 2.869907 4.627946 -2.076235
H 3.893097 3.378997 -1.262704
H 2.729383 4.369604 -0.292460
H 1.996032 2.347804 -2.494882
H 0.825448 3.345862 -1.523767
H 0.376418 0.907019 -1.617581
H -0.631956 2.366061 0.150935
H 0.142486 1.357837 1.408713
H -1.721023 0.547159 2.574022
H -3.205573 -0.016636 1.818858
H -2.164767 2.879751 1.748824
H -3.686625 2.291728 0.953244
H -3.502789 2.213292 2.730826
H -2.657693 1.690206 -0.997806
H -1.786538 0.376142 -1.796655
H -4.473949 0.285287 -0.392137
H -3.989635 -0.321141 -1.998805
H -3.929266 -1.701793 0.666016
H -4.056423 -2.373476 -0.950728
H -2.075042 -2.047253 -2.419712
H -1.560419 -3.586998 -1.641208
H 0.609052 -2.854406 -1.941052
H 0.036605 -1.211374 -2.371964
H 3.106796 -3.738720 2.115868
H 5.228438 -2.501093 2.555497
H 5.540771 -0.210526 1.649085
H 3.781185 0.859035 0.318811
H -1.074350 -1.468278 1.490565
