51

C -1.517871 2.310923 -1.148149
C -2.526704 1.836591 -0.094091
C -3.936269 2.321469 -0.445017
C -2.517750 0.296813 0.068198
C -2.729291 -0.642197 -1.118075
C -2.020952 -1.947881 -0.769536
C -0.956869 -1.608188 0.300524
C -0.854926 -2.762868 1.335265
O -0.219195 -3.881021 0.775538
O 0.275950 -1.427412 -0.398412
C 1.335247 -0.880873 0.375745
O 1.405814 0.510505 0.090473
C 2.624376 1.070711 0.538322
C 2.490675 2.598638 0.570880
O 1.546755 2.986231 1.533158
C 3.773816 0.632068 -0.409452
O 5.016236 0.752468 0.239257
C 3.558352 -0.816877 -0.935180
O 3.021745 -0.805519 -2.237567
C 2.666327 -1.627540 0.036238
O 2.447156 -2.940645 -0.421344
C -1.449109 -0.295128 0.963142
C -2.902126 -0.244896 1.444254
H -1.844844 2.037506 -2.173142
H -0.521267 1.865050 -0.959109
H -1.416091 3.416101 -1.101019
H -2.240363 2.313054 0.870737
H -4.653332 2.012349 0.345161
H -3.953447 3.430094 -0.514993
H -4.268548 1.895717 -1.416138
H -2.274764 -0.218490 -2.036755
H -3.813655 -0.808692 -1.294561
H -2.778500 -2.664667 -0.381433
H -1.565557 -2.404984 -1.675982
H -0.280076 -2.445293 2.228221
H -1.861234 -3.045951 1.720187
H -0.899578 -4.354633 0.229988
H 1.166339 -1.001617 1.468406
H 2.842896 0.740888 1.582630
H 2.203120 2.986745 -0.433643
H 3.469091 3.049207 0.842677
H 0.651096 2.856790 1.125302
H 3.799031 1.312067 -1.290151
H 5.028253 0.102204 0.989635
H 4.544923 -1.326742 -0.998791
H 2.161907 -0.311513 -2.213456
H 3.241002 -1.719051 0.985047
H 2.035162 -2.890731 -1.322190
H -0.764836 0.426250 1.456853
H -3.452406 -1.208915 1.446063
H -3.085709 0.521885 2.226287
