46

O -4.769422 1.429322 -2.221245
C -3.711193 1.635861 -1.324036
C -3.006925 0.310726 -0.991072
O -1.927207 0.572959 -0.115361
C -1.009546 -0.516747 -0.102305
O -0.122718 -0.344510 0.989005
C 0.858482 0.642707 0.713889
O 1.121550 1.359437 1.916518
C 1.888202 0.810472 2.945386
C 2.701605 -0.220648 2.716211
C 2.911748 -0.794753 1.329526
C 4.390627 -0.674217 0.934024
C 4.501121 0.525064 0.003067
O 3.916980 1.698769 0.532765
C 3.146057 0.950479 -0.382799
C 2.994448 1.523584 -1.796916
O 3.867574 2.601623 -1.999040
C 2.148925 -0.040919 0.215915
C -1.717158 -1.896616 0.057591
O -1.731625 -2.563397 -1.180566
C -3.158227 -1.712756 0.568984
O -3.106608 -1.202505 1.879659
C -3.950354 -0.756504 -0.360067
O -4.995258 -0.158926 0.370974
H -4.360720 1.273553 -3.112529
H -4.106824 2.103217 -0.397349
H -2.975676 2.349343 -1.761255
H -2.621678 -0.083499 -1.962760
H -0.439727 -0.528191 -1.063985
H 0.511006 1.388610 -0.039349
H 1.827292 1.237946 3.937466
H 3.259924 -0.640442 3.544098
H 2.603795 -1.863329 1.347323
H 5.069666 -0.552351 1.806273
H 4.700153 -1.581888 0.372424
H 5.360607 0.713918 -0.674595
H 1.946590 1.866785 -1.937143
H 3.205659 0.719863 -2.536762
H 3.718991 2.904438 -2.932319
H 1.889904 -0.768065 -0.585517
H -1.151056 -2.518146 0.792241
H -1.931316 -3.517834 -0.993067
H -3.659930 -2.710093 0.577101
H -3.932387 -1.501868 2.342747
H -4.372292 -1.370432 -1.192909
H -5.783058 -0.100037 -0.230243
