68

C -0.372224 -2.978850 -2.384012
C -0.220680 -1.655645 -2.256071
C 0.664639 -1.049213 -1.188883
C 1.714806 -0.143624 -1.854439
O 2.705824 0.202782 -0.899284
C 3.996633 0.332767 -1.479188
O 4.604884 1.528788 -1.006870
C 5.285232 1.442556 0.243442
C 6.800826 1.567773 -0.003787
O 7.471846 1.875700 1.189584
C 4.897455 0.212356 1.108637
O 5.646534 0.189854 2.296738
C 5.092560 -1.107634 0.329556
O 4.285533 -2.123308 0.876186
C 4.845806 -0.927119 -1.189936
O 4.231527 -2.072091 -1.727181
O 1.096905 1.048563 -2.342002
C 0.041113 1.688883 -1.678682
C -0.622219 1.099452 -0.666930
C -1.621940 1.893486 0.078878
O -1.276881 3.019449 0.529633
N -2.975544 1.427194 0.260066
C -3.420253 0.143084 0.188796
C -4.802275 0.090564 0.307500
C -5.214509 1.383952 0.520171
C -6.490155 1.905388 0.728120
C -6.611868 3.293423 0.895651
C -5.472328 4.121530 0.835090
C -4.196794 3.570935 0.617150
C -4.088550 2.178493 0.478449
C -5.622590 -1.170080 0.260843
C -4.783737 -2.318458 -0.325842
N -3.431311 -2.278699 0.256252
C -3.181946 -3.060256 1.443713
O -3.724787 -4.185623 1.596322
C -2.611286 -1.094903 -0.107502
C -1.223989 -1.076048 0.585247
C -0.136954 -0.234484 -0.129421
H 0.142581 -3.670458 -1.725167
H -1.020028 -3.379237 -3.156469
H -0.759323 -1.000064 -2.933483
H 1.211735 -1.863471 -0.660219
H 2.134698 -0.707218 -2.720826
H 3.956786 0.451620 -2.587904
H 4.985864 2.342120 0.821778
H 7.200244 0.628344 -0.448243
H 6.981301 2.391053 -0.729281
H 8.423260 1.622907 1.050247
H 3.819053 0.336740 1.367134
H 5.134733 -0.353642 2.951473
H 6.149061 -1.431617 0.454416
H 3.336654 -1.846653 0.769074
H 5.834106 -0.788075 -1.688694
H 4.341677 -2.026406 -2.713289
H -0.248173 2.676585 -2.017446
H -7.360742 1.263078 0.765502
H -7.585841 3.730604 1.068687
H -5.580305 5.189936 0.958254
H -3.342312 4.228860 0.561717
H -5.934747 -1.430446 1.294046
H -6.530300 -1.012034 -0.358677
H -4.713954 -2.195035 -1.427923
H -5.285567 -3.291350 -0.135910
H -2.510484 -2.706071 2.213500
H -2.474900 -1.115826 -1.204830
H -1.347310 -0.695265 1.624140
H -0.835114 -2.114107 0.672951
H 0.598042 0.024190 0.666779
