50

C 2.039645 -2.153850 -0.446714
C 2.017382 -0.836483 -1.247148
C 3.427886 -0.487357 -1.733406
O 3.357489 0.313481 -2.885795
C 4.056141 0.317418 -0.593947
C 2.902776 0.936662 0.223741
C 3.040282 0.618704 1.711617
C 4.242731 1.080737 2.446504
O 5.097402 1.805517 1.869219
O 4.438235 0.729422 3.780286
C 2.082552 -0.061275 2.363354
O 0.890100 -0.419251 1.732533
C 0.439382 0.244314 0.558846
O -0.611949 -0.509729 -0.018932
C -1.572821 0.324434 -0.645208
O -2.380246 0.963718 0.340564
C -3.402647 0.100649 0.800453
C -3.971503 0.635614 2.123701
O -3.007710 0.548907 3.138886
C -4.485740 -0.061208 -0.304921
O -5.512188 0.895354 -0.191734
C -3.852959 0.003561 -1.718775
O -4.617770 -0.763932 -2.612660
C -2.396102 -0.492243 -1.691589
O -2.379765 -1.866421 -1.388459
C 1.609423 0.407846 -0.433608
H 2.708455 -2.079773 0.435887
H 2.407217 -2.978640 -1.093457
H 1.021024 -2.434030 -0.111335
H 1.326082 -0.970494 -2.109560
H 4.041321 -1.395011 -1.946116
H 3.154253 -0.295822 -3.642917
H 4.732451 1.108271 -0.987016
H 4.668930 -0.372672 0.028650
H 2.926946 2.044217 0.112835
H 5.256602 1.045268 4.286979
H 2.214086 -0.351149 3.397710
H 0.105635 1.261938 0.877047
H -1.070623 1.132708 -1.225595
H -2.982768 -0.907729 1.033443
H -4.847139 0.020585 2.422508
H -4.314133 1.689437 2.011819
H -2.374791 1.300658 2.997357
H -4.948541 -1.063588 -0.166152
H -5.096529 1.793422 -0.275216
H -3.840593 1.065286 -2.063268
H -4.342710 -0.497109 -3.528725
H -1.956277 -0.331850 -2.705325
H -1.529239 -2.231715 -1.748093
H 1.290314 1.173207 -1.178270
