51

C -4.296938 -3.599925 0.322542
O -4.750966 -2.324654 -0.118909
C -3.951455 -1.173121 -0.163195
C -4.533686 0.027521 -0.625517
C -3.777982 1.221454 -0.695419
O -4.310980 2.438306 -1.144082
C -5.656251 2.610881 -1.576247
C -2.443819 1.167664 -0.294816
C -1.873403 0.007755 0.161656
C -2.595180 -1.182632 0.236211
C -0.442771 0.286781 0.479254
C -0.052429 0.071804 1.936119
C 1.401022 -0.333608 1.763996
C 2.340718 0.851957 1.239012
C 1.759617 2.290797 1.345995
O 0.703259 2.590643 0.419807
C -0.413598 1.774608 0.193538
N -1.527910 2.251490 -0.268438
C 2.819802 0.530462 -0.214363
C 1.609496 0.254416 -1.142263
C 0.571776 -0.598721 -0.338671
N 1.283683 -1.363698 0.718521
C 2.607552 -1.913765 0.326650
C 3.521347 -0.800009 -0.121709
C 4.823113 -1.021295 -0.391513
C 5.778565 0.051161 -0.830151
O 5.431049 0.499998 -2.110143
H -3.962130 -3.540963 1.379761
H -5.132665 -4.326022 0.254252
H -3.464919 -3.953205 -0.322617
H -5.572652 0.016679 -0.926097
H -5.862283 1.959733 -2.451911
H -6.356721 2.371082 -0.748558
H -5.808174 3.668053 -1.875650
H -2.109158 -2.081690 0.589548
H -0.204875 0.947283 2.602322
H -0.618907 -0.781934 2.372279
H 1.792338 -0.770769 2.709281
H 3.244691 0.850490 1.890339
H 2.582571 3.013353 1.160561
H 1.414103 2.485589 2.382435
H 3.455785 1.341766 -0.625214
H 1.941626 -0.327999 -2.032144
H 1.197160 1.183976 -1.580172
H 0.045491 -1.299420 -1.023697
H 3.056794 -2.443523 1.194790
H 2.477085 -2.646077 -0.498873
H 5.217927 -2.026583 -0.270873
H 6.807130 -0.371580 -0.854360
H 5.762356 0.892533 -0.101854
H 6.073793 1.222958 -2.331407
