94

C -3.646402 3.692626 -1.817506
C -4.959147 3.175527 -1.303862
C -5.105733 2.050540 -0.572551
C -6.487060 1.559462 -0.115200
N -6.678980 0.076016 -0.262341
C -7.865767 -0.392752 0.467281
C -5.494601 -0.833065 -0.094348
C -5.092006 -1.122330 1.405300
C -3.652312 -1.633728 1.558599
C -2.382610 -0.956256 1.477997
N -1.390274 -1.883027 1.556203
C -1.970747 -3.086697 1.642618
C -1.323000 -4.321787 1.717269
C -2.115619 -5.479725 1.780916
C -3.522486 -5.378158 1.762715
C -4.147422 -4.120038 1.682986
C -3.333878 -2.982187 1.636272
C -2.077195 0.566242 1.399345
C -0.613392 0.887040 1.662125
C -0.228009 1.534261 2.866999
C 1.112621 1.890658 3.094417
C 2.050219 1.571388 2.116033
N 3.369284 1.821988 2.143848
C 3.869400 1.328076 0.985886
C 2.857530 0.746624 0.227334
C 1.697327 0.928899 0.960344
C 0.373500 0.585466 0.690822
C 2.982669 0.151377 -1.141486
C 4.093518 -0.914305 -1.230181
N 5.471784 -0.394977 -1.114712
C 5.893392 0.564562 -2.169448
C 6.605750 1.776247 -1.534492
C 7.855139 1.241826 -0.790960
C 7.450291 0.134897 0.240562
C 8.121559 -1.226283 -0.055401
C 9.620735 -1.211658 0.248175
C 5.899775 -0.000635 0.252901
C 5.328325 1.395139 0.626199
C 5.633456 2.410151 -0.510931
C -2.531452 1.327195 0.088686
C -4.017461 1.092663 -0.187470
C -4.308491 -0.254987 -0.876870
C -4.582168 -0.124252 -2.362501
O -3.769993 0.516546 -3.087640
O -5.707310 -0.734235 -2.933018
C -6.062801 -0.561921 -4.298193
H -3.065150 2.890046 -2.313733
H -3.062832 4.135321 -0.986615
H -3.833267 4.494669 -2.558872
H -5.841024 3.752219 -1.559508
H -7.284663 2.073473 -0.695039
H -6.610668 1.855009 0.949448
H -8.024363 -1.479017 0.294158
H -7.762185 -0.206532 1.558357
H -8.769050 0.137458 0.098048
H -5.741914 -1.817398 -0.554431
H -5.260127 -0.262121 2.082001
H -5.794762 -1.880783 1.803223
H -0.361408 -1.724290 1.569156
H -0.243003 -4.387764 1.718133
H -1.645327 -6.455012 1.840535
H -4.126397 -6.274733 1.806081
H -5.228103 -4.052286 1.664836
H -2.653313 1.012286 2.241615
H -0.967155 1.780066 3.619992
H 1.405777 2.399623 4.002520
H 3.899192 2.295353 2.907906
H 0.109607 0.081979 -0.229345
H 3.111878 0.966268 -1.879923
H 2.030663 -0.353342 -1.407430
H 3.920890 -1.691531 -0.452447
H 3.997141 -1.433634 -2.209086
H 6.595583 0.044821 -2.856974
H 5.052977 0.910320 -2.802620
H 6.896726 2.512605 -2.313120
H 8.578702 0.855799 -1.541559
H 8.355505 2.081315 -0.261366
H 7.773801 0.453683 1.257952
H 7.964679 -1.513590 -1.117302
H 7.655827 -2.012650 0.577612
H 9.796600 -0.932834 1.310381
H 10.043358 -2.224588 0.074581
H 10.152127 -0.494946 -0.411789
H 5.593624 -0.763368 1.002511
H 5.860363 1.748111 1.539337
H 6.093399 3.326640 -0.082671
H 4.704941 2.726863 -1.035220
H -2.356274 2.406823 0.259121
H -1.937788 1.016107 -0.795643
H -4.317501 1.101698 0.863867
H -3.445057 -0.946675 -0.835826
H -5.225927 -0.889121 -4.954028
H -6.957734 -1.183395 -4.524052
H -6.298332 0.508646 -4.495493
