26

O -2.393616 -0.207176 -1.423764
C -1.515996 -0.404567 -0.336494
C -1.547938 -1.885591 0.170940
O -0.216332 -2.389395 0.197873
C 0.556710 -1.228108 0.240192
O 1.904257 -1.401551 -0.119479
C 2.587752 -0.191815 0.217184
C 1.969725 1.093694 -0.426884
C 0.416654 1.099348 -0.536061
C -0.365461 1.586652 0.684708
C -1.683446 0.770587 0.688575
Cl -2.120002 0.294705 2.360639
C -0.086868 -0.298436 -0.758565
H -2.180366 -0.873126 -2.129200
H -2.012087 -2.002425 1.168794
H -2.141100 -2.520637 -0.521182
H 0.500277 -0.864865 1.300838
H 3.641401 -0.281476 -0.121771
H 2.633322 -0.070686 1.323541
H 2.313366 1.993208 0.127651
H 2.377664 1.175508 -1.458162
H 0.119581 1.726278 -1.407420
H -0.571200 2.676704 0.609220
H 0.219405 1.409573 1.613709
H -2.499923 1.439878 0.337674
H 0.094222 -0.646281 -1.802557
