47

C 5.370913 0.425349 0.234062
C 4.509543 -0.801951 0.252112
C 3.178503 -0.770152 0.057047
C 2.330759 -2.034736 0.092069
N 0.892884 -1.649954 0.147911
C 0.743215 -0.738865 1.316922
C -0.718684 -0.505805 1.532535
C -0.997888 0.529034 0.458384
C -2.457833 0.844988 0.470335
C -3.197526 1.662342 1.328421
C -4.598458 1.620105 1.246983
C -5.234358 0.740687 0.349339
C -4.475433 -0.107968 -0.472641
C -3.081122 -0.046421 -0.388161
N -2.139863 -0.818602 -1.146844
C -2.500967 -1.576722 -2.343273
C -0.865180 -0.123004 -0.946623
C 0.479562 -0.929011 -1.114869
C 1.584804 0.115587 -1.500502
C 2.358194 0.480167 -0.216859
C 1.359608 0.663077 0.984251
C 0.120332 1.570960 0.671605
O -0.174921 2.382518 1.778214
H 6.424169 0.144808 0.444060
H 5.032097 1.140027 1.013560
H 5.326053 0.907374 -0.765152
H 4.991080 -1.757609 0.440065
H 2.590829 -2.647562 0.983419
H 2.530156 -2.650281 -0.812060
H 1.189355 -1.180739 2.237810
H -1.307625 -1.443708 1.411443
H -0.903461 -0.091116 2.549833
H -2.712974 2.301766 2.052638
H -5.193686 2.252981 1.892281
H -6.315096 0.709867 0.301434
H -4.965768 -0.794664 -1.149765
H -1.608981 -1.800668 -2.960493
H -3.208905 -0.989905 -2.965745
H -2.979934 -2.531681 -2.043635
H -0.880207 0.693871 -1.706499
H 0.381863 -1.663331 -1.939867
H 2.272477 -0.331924 -2.254816
H 1.202867 1.034953 -1.991185
H 2.969319 1.393283 -0.374533
H 1.917395 1.049402 1.866400
H 0.264335 2.211476 -0.227964
H 0.498556 3.111759 1.780024
