52

C -4.680013 -1.527731 -1.593999
C -4.113018 -1.205852 -0.209355
C -2.575324 -1.376173 -0.141420
C -2.133842 -1.551187 1.333934
N -0.705334 -1.210241 1.504280
C -0.235407 -1.708172 2.811954
C -0.496864 0.260179 1.359573
C 1.008273 0.642124 1.319517
C 1.895858 0.021084 0.262596
C 1.643772 -0.926637 -0.743985
N 2.787890 -1.260997 -1.385588
C 3.760634 -0.534470 -0.817929
C 5.116200 -0.539015 -1.144260
C 5.972803 0.297524 -0.406762
C 5.461064 1.107834 0.629951
C 4.088429 1.089248 0.936737
C 3.260004 0.253255 0.184103
C 0.361741 -1.525912 -1.116155
O 0.200886 -2.765761 -0.959343
C -0.705366 -0.715661 -1.791344
C -1.816540 -0.198206 -0.845133
C -1.358125 0.860617 0.193022
C -0.841531 2.144910 -0.421905
O 0.190126 2.148582 -1.147563
O -1.514379 3.342055 -0.156981
C -1.085741 4.593840 -0.678795
H -4.279402 -0.838765 -2.364987
H -5.785009 -1.420639 -1.573499
H -4.434449 -2.573157 -1.877647
H -4.596995 -1.898402 0.514494
H -4.398287 -0.170321 0.077698
H -2.337640 -2.331924 -0.659680
H -2.756618 -0.919733 2.010270
H -2.322917 -2.612074 1.615344
H 0.869316 -1.648815 2.876518
H -0.479915 -2.785635 2.932777
H -0.694533 -1.141453 3.651821
H -0.878616 0.757475 2.283716
H 1.457926 0.410329 2.306735
H 1.105455 1.745773 1.251574
H 2.891937 -1.941538 -2.171542
H 5.498962 -1.167374 -1.938052
H 7.030690 0.318419 -0.633907
H 6.129034 1.746443 1.193114
H 3.692492 1.707409 1.731920
H -0.244217 0.116846 -2.357797
H -1.181113 -1.353659 -2.568501
H -2.527216 0.332108 -1.516430
H -2.311323 1.173081 0.680295
H -1.775866 5.389469 -0.330767
H -0.060269 4.823973 -0.319589
H -1.097626 4.566922 -1.789026
