47

C -2.453490 -1.014036 2.776180
C -1.996594 -1.463246 1.418830
C -1.808530 -0.631759 0.368018
C -2.175930 0.858446 0.431054
N -1.212376 1.757333 -0.304378
C -1.989771 2.911196 -0.832519
C -0.207782 2.312111 0.688780
C 1.182151 2.618152 0.077273
C 1.698059 1.330022 -0.473744
C 0.793782 0.512896 -1.118041
N 1.029467 -0.792567 -0.838775
C 2.159720 -0.811801 -0.102067
C 2.762354 -1.913645 0.512453
C 3.836203 -1.677018 1.388215
C 4.257331 -0.358852 1.663250
C 3.613692 0.734831 1.058860
C 2.585736 0.471407 0.152375
C 0.014709 -1.853977 -0.937152
C 0.275229 -2.722644 -2.137815
O 0.933799 -2.284384 -3.119866
O -0.246794 -4.011655 -2.176488
C -1.413723 -1.226472 -0.986328
C -1.429612 -0.102174 -2.033894
C -0.566909 1.052952 -1.486173
H -1.717105 -0.305816 3.211110
H -3.451108 -0.531846 2.704728
H -2.535689 -1.891796 3.450789
H -1.818633 -2.527491 1.292355
H -2.315384 1.213594 1.475062
H -3.197333 0.921774 -0.010123
H -2.576397 3.406666 -0.025650
H -1.317947 3.676104 -1.282194
H -2.707928 2.588938 -1.619206
H -0.032599 1.582135 1.514706
H -0.585118 3.231111 1.193154
H 1.864865 3.025715 0.852520
H 1.084577 3.364157 -0.739556
H 2.414692 -2.921947 0.330722
H 4.328412 -2.510554 1.872073
H 5.069594 -0.187679 2.357575
H 3.912198 1.748535 1.291766
H 0.085065 -2.511520 -0.045109
H -0.094970 -4.609724 -2.979821
H -2.159352 -2.001793 -1.272287
H -2.469616 0.239323 -2.225833
H -1.027161 -0.457092 -3.007212
H -0.393783 1.764091 -2.327619
