48

C -2.088406 3.685360 0.781251
C -2.163859 2.261950 0.296662
C -0.987899 1.511938 0.180907
C -1.014912 0.178515 -0.264696
O 0.165024 -0.582130 -0.376660
C 1.455201 -0.231572 0.130113
O 2.398546 -1.149336 -0.391822
C 3.743780 -0.736124 -0.155727
C 4.262600 0.118410 -1.325548
O 4.140102 -0.580835 -2.534867
C 3.956505 -0.030226 1.217804
O 5.239553 -0.308681 1.717452
C 2.900432 -0.534527 2.215102
O 3.072849 0.053560 3.481012
C 1.467264 -0.285529 1.679518
O 0.613620 -1.307419 2.128893
C -2.249834 -0.416315 -0.617921
C -2.282872 -1.867431 -1.104937
C -3.054607 -2.776005 -0.139102
C -2.816782 -1.981695 -2.539229
C -3.439980 0.342998 -0.497340
O -4.669361 -0.230080 -0.829302
C -3.397014 1.673004 -0.042989
O -4.594830 2.386994 0.060890
H -2.485968 4.369223 0.002106
H -2.682254 3.797126 1.712715
H -1.044165 3.991930 1.003937
H -0.050419 1.983493 0.433987
H 1.704934 0.793715 -0.223343
H 4.353574 -1.666734 -0.143294
H 3.722455 1.090525 -1.381450
H 5.337514 0.346510 -1.165703
H 3.201029 -0.467550 -2.836520
H 3.826726 1.073367 1.106372
H 5.870766 0.286088 1.235027
H 3.050436 -1.631779 2.331976
H 3.006114 1.037928 3.368143
H 1.093939 0.695859 2.052014
H 0.439629 -1.132073 3.090560
H -1.253203 -2.280954 -1.141441
H -4.139893 -2.549639 -0.137272
H -2.659868 -2.655824 0.892555
H -2.925641 -3.838709 -0.436607
H -2.269474 -1.281496 -3.205974
H -3.901377 -1.760423 -2.597043
H -2.658570 -3.014005 -2.918509
H -5.545703 0.272510 -0.758745
H -4.645699 3.346090 0.379145
