69

O -1.043574 0.181125 0.063519
C -1.242843 0.479863 1.230576
C -1.415536 -0.597071 2.300022
C -2.867013 -1.067398 2.425431
C -3.959395 -0.574682 1.822734
O -3.914903 0.412503 0.833696
C -5.084544 1.090398 0.366408
O -4.705359 2.125266 -0.533313
C -4.645152 1.742078 -1.903390
C -3.377724 0.919014 -2.223060
O -3.501785 -0.410179 -1.801607
C -5.991830 1.182191 -2.467870
O -5.751379 0.121047 -3.359116
C -6.951746 0.721163 -1.352113
O -7.778678 1.780317 -0.919900
C -6.158915 0.105021 -0.188383
O -7.027314 -0.335216 0.828577
C -0.553997 -1.833740 1.930335
C 0.956305 -1.516683 1.826380
C 1.410679 -0.336665 2.723396
C 2.912154 -0.428062 3.071295
O 3.724461 -0.045650 1.962350
C 4.186506 -0.922575 0.977455
O 3.856798 -2.141179 0.992214
C 5.088803 -0.400643 -0.062826
C 5.469132 -1.136804 -1.116147
C 6.404399 -0.642013 -2.154543
C 6.328716 -1.179967 -3.448562
C 7.211555 -0.754291 -4.446160
C 8.193289 0.200728 -4.160874
O 9.067486 0.600066 -5.171849
C 8.290203 0.737090 -2.866306
O 9.274105 1.682646 -2.573051
C 7.399341 0.314539 -1.868607
C 0.557904 -0.272862 4.003602
C -0.954362 -0.078084 3.715026
O -1.295534 1.271631 3.906123
H -1.324787 1.530108 1.480501
H -3.047140 -1.857819 3.149058
H -4.917873 -0.977612 2.123919
H -5.524980 1.614327 1.242903
H -4.477036 2.694091 -2.456719
H -3.194045 0.937781 -3.320239
H -2.503973 1.397220 -1.727126
H -2.620601 -0.833382 -1.959735
H -6.495453 2.010204 -3.024827
H -6.497569 0.105881 -4.011933
H -7.626021 -0.063914 -1.760006
H -7.201498 2.520657 -0.600688
H -5.644135 -0.798156 -0.580523
H -7.485680 0.461514 1.207173
H -0.691487 -2.619871 2.708260
H -0.902472 -2.277216 0.969755
H 1.209305 -1.285236 0.768407
H 1.507339 -2.441194 2.102212
H 1.258661 0.617442 2.173108
H 3.189406 -1.440162 3.439470
H 3.137472 0.283220 3.894867
H 5.423510 0.623099 0.038053
H 5.055427 -2.131977 -1.246751
H 5.578733 -1.925229 -3.689611
H 7.135102 -1.170483 -5.443425
H 9.802934 1.277377 -5.007396
H 9.370033 2.080718 -1.645710
H 7.510251 0.716767 -0.869279
H 0.919369 0.548122 4.664638
H 0.701632 -1.223969 4.567083
H -1.471195 -0.673009 4.507247
H -2.283479 1.307779 4.004267
