51

C 1.419097 -0.089160 -1.896198
C 1.780704 0.356808 -0.464126
C 2.555218 1.701305 -0.563784
C 2.657766 -0.741199 0.151372
C 4.063690 -0.773747 0.000165
C 4.806804 -1.864370 0.460021
C 4.162943 -2.959267 1.044481
O 4.892837 -4.057137 1.494887
C 2.773466 -2.954722 1.172765
C 2.026209 -1.854968 0.737749
O 0.639914 -1.893779 0.864919
C -0.171468 -0.729785 1.012091
C -1.593103 -1.004498 0.536568
C -2.650607 -0.297406 1.143351
C -3.968254 -0.475600 0.719484
C -4.259887 -1.374661 -0.306704
O -5.580213 -1.542774 -0.718167
C -3.225711 -2.100186 -0.909349
C -1.895593 -1.924511 -0.497059
O -0.889182 -2.666987 -1.113188
C 0.514844 0.576588 0.454102
C -0.465396 1.646960 -0.048318
C -0.587303 2.863679 0.653114
C -1.481916 3.850922 0.227994
O -1.578373 5.043446 0.941887
C -2.272102 3.634329 -0.906463
C -2.169795 2.435050 -1.614078
O -2.971462 2.228584 -2.734552
C -1.268940 1.449551 -1.190610
H 2.332486 -0.404594 -2.446500
H 0.721879 -0.946810 -1.882876
H 0.969648 0.740857 -2.479245
H 1.888388 2.527595 -0.887757
H 2.995128 1.975905 0.419413
H 3.365705 1.652742 -1.321010
H 4.602363 0.027409 -0.482867
H 5.883201 -1.865219 0.343576
H 5.902679 -4.090203 1.415844
H 2.271088 -3.805845 1.615124
H -0.258272 -0.585639 2.114054
H -2.449486 0.411718 1.937220
H -4.764618 0.087551 1.189153
H -5.827067 -2.193467 -1.455336
H -3.455549 -2.801667 -1.701731
H -1.092900 -3.336767 -1.845809
H 0.972023 1.008194 1.376149
H 0.012504 3.051920 1.535135
H -2.217754 5.778400 0.662144
H -2.968634 4.394842 -1.236777
H -2.921382 1.369741 -3.270842
H -1.225615 0.520873 -1.740364
