32

C 3.216499 -1.143136 -0.080671
C 2.938547 0.340570 -0.122160
C 4.062845 1.295945 -0.430222
C 1.708514 0.850135 0.111912
C 0.472647 0.032754 0.412084
C -0.575625 0.199179 -0.714801
O -0.047027 -0.174215 -1.965727
C -1.926509 -0.537705 -0.453122
C -1.778468 -2.069912 -0.451282
C -2.651214 -0.089006 0.843185
C -2.952836 1.415703 0.914306
O -3.645985 1.848619 -0.225171
H 4.279058 -1.365608 -0.310838
H 2.998968 -1.540425 0.933074
H 2.590525 -1.669365 -0.830980
H 5.021628 0.763550 -0.600606
H 4.202089 1.998087 0.419032
H 3.820994 1.876916 -1.345438
H 1.573868 1.928397 0.065290
H 0.706719 -1.038579 0.563411
H 0.059932 0.413371 1.368333
H -0.802350 1.283383 -0.794272
H 0.410120 -1.048212 -1.861239
H -2.597069 -0.292191 -1.306775
H -2.775311 -2.546869 -0.336194
H -1.135843 -2.411253 0.386309
H -1.355509 -2.431240 -1.410965
H -2.061809 -0.383375 1.737374
H -3.621459 -0.628614 0.913968
H -2.011093 1.993941 1.010500
H -3.552560 1.628047 1.828244
H -4.572288 1.501110 -0.142480
