69

C -9.271689 -0.203936 -1.086579
C -8.077988 -1.130139 -1.047804
C -6.836814 -0.661926 -0.795676
C -6.536759 0.800192 -0.572377
C -5.085428 1.048692 -0.122560
C -4.710345 0.422252 1.249000
C -5.664098 0.888687 2.363626
C -3.256568 0.777533 1.643016
C -2.200248 0.122201 0.739538
O -0.915735 0.282178 1.311546
C -0.268735 1.443627 0.816400
O 0.340137 1.165259 -0.441357
C 1.646727 0.590465 -0.390268
C 2.667953 1.635086 -0.892584
O 3.951935 1.054425 -1.112522
C 4.257564 0.234037 -2.205511
O 3.426813 0.077959 -3.141257
C 5.554742 -0.456924 -2.273174
C 6.455385 -0.357829 -1.284235
C 7.777801 -1.031858 -1.290620
C 8.768551 -0.568453 -0.407248
C 10.026062 -1.179424 -0.361893
C 10.307546 -2.269660 -1.193781
O 11.554655 -2.890690 -1.152691
C 9.327229 -2.744716 -2.069384
C 8.068391 -2.136171 -2.118003
C 2.025128 -0.043603 0.978009
O 3.332335 -0.557357 0.942963
C 1.879003 0.978595 2.127216
O 1.728383 0.309564 3.357706
C 0.725048 1.981601 1.868442
O 0.051976 2.281592 3.066786
C -8.301259 -2.588444 -1.210927
O -7.325812 -3.384337 -1.319054
O -9.596976 -3.093861 -1.262116
H -9.029586 0.735767 -1.622201
H -9.593541 0.035584 -0.051500
H -10.121190 -0.667662 -1.629986
H -6.007121 -1.358745 -0.749760
H -6.693727 1.336550 -1.533021
H -7.242404 1.235739 0.166101
H -4.918012 2.147687 -0.080896
H -4.419155 0.647835 -0.914533
H -4.789460 -0.684437 1.184300
H -5.299741 0.561331 3.359757
H -5.751360 1.995780 2.363048
H -6.670552 0.439931 2.232655
H -3.065638 0.426684 2.682257
H -3.123601 1.881146 1.636417
H -2.255386 0.512948 -0.302826
H -2.408444 -0.967229 0.679757
H -0.997814 2.272214 0.650110
H 1.647628 -0.239723 -1.128750
H 2.778364 2.452162 -0.153567
H 2.302284 2.096980 -1.835767
H 5.761365 -1.041512 -3.159751
H 6.230802 0.278413 -0.435472
H 8.567670 0.271580 0.248095
H 10.778060 -0.808750 0.323990
H 12.278238 -2.582697 -0.514262
H 9.537264 -3.594632 -2.707031
H 7.328185 -2.551936 -2.787074
H 1.320391 -0.892491 1.144653
H 3.421895 -1.173310 1.716928
H 2.821917 1.566918 2.189017
H 0.873782 -0.195396 3.321264
H 1.168498 2.921763 1.465505
H -0.487542 3.098804 2.901587
H -9.766978 -4.086407 -1.371667
