83

C -0.672832 -3.434656 -2.612137
C -1.820148 -3.330146 -1.648228
C -2.814448 -4.319712 -1.632263
C -3.896952 -4.223367 -0.758052
C -4.022779 -3.117105 0.101412
C -5.174002 -3.014902 1.089814
C -6.540392 -3.095922 0.393233
C -5.051035 -4.091759 2.178716
C -3.026101 -2.125182 0.083695
C -1.920503 -2.225186 -0.782324
O -0.911703 -1.248086 -0.807199
C -1.029473 0.052503 -0.226955
O -2.129325 0.709590 -0.844804
C -2.269179 2.029678 -0.359271
C -3.639670 2.552060 -0.812421
O -3.930596 3.794381 -0.177849
C -5.053985 4.560619 -0.512502
O -5.699893 4.320926 -1.569930
C -5.454945 5.705289 0.372609
C -6.940347 5.801511 0.549100
O -7.651690 4.757346 0.607544
O -7.528951 7.052652 0.710844
C -1.069867 2.915153 -0.830190
O -1.450092 3.823853 -1.830135
C 0.109628 2.048585 -1.330492
O -0.144859 1.589109 -2.636477
C 0.304137 0.846799 -0.391242
O 1.331741 0.009806 -0.909554
C 2.336944 -0.251425 0.057001
O 3.137292 0.914883 0.209630
C 4.373643 0.723490 0.898518
C 5.523997 1.036118 -0.073569
O 6.768894 1.054210 0.618724
C 8.003346 0.952474 -0.035042
O 8.061263 0.784503 -1.283540
C 9.261066 1.017655 0.771572
C 9.491582 -0.284153 1.462850
O 8.995373 -0.491603 2.601227
O 10.222798 -1.288777 0.828078
C 4.559702 -0.668000 1.575357
O 3.679060 -0.796435 2.662534
C 4.316732 -1.808121 0.565199
O 4.054441 -3.013833 1.235789
C 3.172650 -1.458295 -0.427194
O 2.358170 -2.575335 -0.689458
H -0.748238 -4.342428 -3.244289
H -0.662905 -2.546147 -3.281632
H 0.284187 -3.482942 -2.055003
H -2.745020 -5.172796 -2.294540
H -4.629665 -5.018644 -0.751609
H -5.136498 -2.030054 1.604941
H -7.349181 -2.909490 1.133918
H -6.711544 -4.104748 -0.048610
H -6.615290 -2.325858 -0.405309
H -5.161816 -5.109133 1.741766
H -5.840623 -3.948496 2.950930
H -4.059261 -4.016602 2.679683
H -3.120705 -1.282896 0.754082
H -1.219849 -0.074334 0.864983
H -2.293628 2.016040 0.758396
H -4.425973 1.814786 -0.521196
H -3.660124 2.660545 -1.919295
H -4.984684 5.591436 1.374827
H -5.080043 6.645609 -0.085029
H -8.535504 7.154334 0.812231
H -0.713720 3.488760 0.059665
H -0.740806 4.518078 -1.866461
H 1.045560 2.659030 -1.305048
H 0.285966 2.228106 -3.263196
H 0.560950 1.286784 0.607362
H 1.866470 -0.516359 1.031194
H 4.420894 1.492283 1.702531
H 5.541224 0.283997 -0.893268
H 5.357265 2.031842 -0.540205
H 10.125270 1.247140 0.112315
H 9.182014 1.833949 1.520907
H 10.377904 -2.189733 1.266288
H 5.601182 -0.764836 1.958373
H 4.023296 -0.217809 3.389551
H 5.246438 -1.945850 -0.036045
H 4.877170 -3.259200 1.730015
H 3.638619 -1.156645 -1.392727
H 1.781971 -2.728911 0.105770
