47

C 4.188672 -1.311568 1.869521
N 3.069931 -0.628828 1.202946
C 1.805616 -0.864841 1.938828
C 0.550037 -0.644983 1.067753
C 0.812394 0.372906 -0.069409
C -0.359954 0.493439 -1.093879
C -1.730080 0.218516 -0.488020
C -2.483537 1.144977 0.237901
C -3.575164 0.443120 0.696736
C -4.649804 0.851388 1.483980
C -5.617760 -0.112245 1.822336
C -5.485360 -1.446383 1.376142
C -4.384071 -1.827947 0.587594
C -3.445711 -0.849052 0.263148
N -2.320840 -1.003974 -0.453050
C -0.329421 1.882570 -1.789743
O 0.809408 2.040857 -2.626261
C 1.966761 2.368723 -1.879008
C 2.815412 1.118245 -1.530450
O 3.526824 0.702263 -2.669924
C 2.012287 -0.096681 -0.959773
C 2.960246 -1.058906 -0.201408
O 1.394812 -0.807416 -2.028757
C 0.048822 -0.521677 -2.105961
O -0.695385 -0.977424 -3.014640
H 4.246039 -1.001545 2.935420
H 4.073692 -2.417360 1.817579
H 5.148671 -1.023906 1.389770
H 1.768114 -0.160268 2.797923
H 1.763493 -1.898850 2.352202
H -0.277952 -0.290808 1.719455
H 0.242721 -1.620242 0.629271
H 1.016910 1.345401 0.429446
H -2.250516 2.183494 0.431223
H -4.737389 1.874373 1.826714
H -6.466787 0.169638 2.431301
H -6.233647 -2.180403 1.645263
H -4.269661 -2.848646 0.246296
H -1.965204 -1.897010 -0.861055
H -1.225278 1.964727 -2.443057
H -0.427133 2.711337 -1.052194
H 2.586850 3.046687 -2.503172
H 1.752298 2.967095 -0.964377
H 3.540333 1.442564 -0.745355
H 4.298060 1.319099 -2.774345
H 2.572550 -2.103073 -0.252417
H 3.959698 -1.067384 -0.692491
