131

C 6.806656 4.277320 -1.135170
C 7.351399 3.240963 -0.189517
C 6.979460 1.943341 -0.201884
C 7.586556 1.006779 0.831324
O 8.986419 0.965162 0.620035
C 9.736544 1.042709 1.825443
O 10.175842 -0.248970 2.232860
C 11.155942 -0.847100 1.386783
C 10.558154 -1.444674 0.101165
O 9.437866 -2.228097 0.400008
C 12.385375 0.053066 1.123267
O 13.149925 0.157889 2.300014
C 11.935523 1.447185 0.654263
O 13.029875 2.303957 0.452229
C 10.911903 2.033334 1.631764
O 11.514338 2.392970 2.854579
O 7.065558 -0.315883 0.703970
C 6.631741 -0.843262 -0.515580
C 6.132537 -0.037440 -1.466687
C 5.736137 -0.598761 -2.783384
O 5.247771 0.159319 -3.666726
O 5.910737 -1.960410 -3.048383
C 5.579814 -2.541583 -4.303764
C 5.887976 1.422676 -1.133489
C 4.530617 1.597651 -0.435512
C 3.358580 1.342914 -1.325570
O 3.199523 2.013975 -2.385430
O 2.396048 0.412822 -0.924608
C 1.074684 0.397420 -1.444398
C 0.281696 -0.735922 -0.767298
C -1.081553 -1.081988 -1.389158
C -1.949452 0.134269 -1.764177
C -1.732492 -1.934461 -0.302184
O -3.148139 -2.056682 -0.465690
C -3.853705 -3.238515 -0.168421
O -3.248786 -4.242997 0.306069
C -5.313244 -3.347815 -0.491640
C -6.216471 -2.304124 0.224544
C -6.262369 -2.453983 1.747820
C -5.046905 -2.778493 2.512438
O -4.068464 -2.005419 2.429888
O -4.902586 -4.075481 3.034516
C -3.845106 -4.439768 3.907161
C -7.358474 -2.101120 2.439765
O -8.504680 -1.599435 1.806778
C -8.547262 -1.289937 0.413655
O -8.036666 0.015677 0.198191
C -9.060300 0.969108 0.001974
O -9.864559 0.597793 -1.109967
C -11.031014 1.411314 -1.226168
C -12.153823 0.923008 -0.294568
O -12.424551 -0.425149 -0.555764
C -10.724368 2.941587 -1.127802
O -11.241002 3.542869 0.031359
C -9.206290 3.183491 -1.264608
O -8.883645 4.549133 -1.143494
C -8.401916 2.343344 -0.242015
O -8.291795 3.016322 0.992075
C -7.652575 -2.262456 -0.324823
C -8.099558 -3.020116 -1.363714
C -9.483761 -2.917153 -1.933637
C -1.363998 -1.249290 1.011185
C 0.057932 -0.692339 0.776289
C 0.393256 0.634741 1.545562
C 0.531005 0.354025 3.047440
C -0.593120 1.819170 1.339371
O -0.106812 2.998787 1.913998
H 5.703924 4.349668 -1.050477
H 7.239744 5.263626 -0.875203
H 7.089588 4.034425 -2.176919
H 8.084142 3.570189 0.540032
H 7.279634 1.400439 1.826302
H 9.159627 1.471801 2.674101
H 11.537285 -1.724511 1.957297
H 11.325235 -2.064373 -0.409195
H 10.265530 -0.657301 -0.622329
H 9.778550 -3.081547 0.779238
H 12.993704 -0.404163 0.313722
H 14.094046 0.286386 2.024637
H 11.433125 1.324810 -0.336443
H 13.402377 2.553257 1.338097
H 10.505464 2.968513 1.183507
H 11.300116 1.710676 3.547661
H 6.698615 -1.912464 -0.667839
H 4.497557 -2.406592 -4.506792
H 6.168779 -2.056873 -5.111547
H 5.814249 -3.624244 -4.282056
H 5.907690 2.002697 -2.077815
H 4.474804 0.914504 0.438950
H 4.433509 2.628098 -0.037395
H 0.599251 1.385765 -1.294246
H 1.113192 0.211773 -2.533702
H 0.905094 -1.639443 -0.960656
H -0.935566 -1.694774 -2.310052
H -2.251353 0.713188 -0.869263
H -1.413556 0.805181 -2.471024
H -2.871984 -0.210748 -2.277346
H -1.249131 -2.941705 -0.335780
H -5.367123 -3.192867 -1.591343
H -5.678978 -4.376308 -0.273587
H -5.778783 -1.305967 0.009337
H -2.898521 -3.903513 3.662142
H -4.142438 -4.240661 4.960961
H -3.655897 -5.529369 3.793698
H -7.366941 -2.180516 3.522954
H -9.610433 -1.407025 0.110674
H -9.665834 1.014883 0.932852
H -11.407067 1.242758 -2.256353
H -11.880546 1.039854 0.780683
H -13.069703 1.529542 -0.479272
H -13.051293 -0.726816 0.153853
H -11.219240 3.433057 -1.994103
H -10.847520 3.091990 0.820322
H -8.905640 2.852711 -2.284392
H -9.547597 5.060499 -1.693083
H -7.379304 2.181454 -0.669148
H -7.562827 3.679068 0.893143
H -7.458591 -3.737892 -1.843755
H -10.236879 -3.227773 -1.180236
H -9.682454 -1.881298 -2.267006
H -9.566650 -3.589548 -2.818429
H -2.100111 -0.452247 1.217370
H -1.374998 -1.970765 1.851490
H 0.750847 -1.456625 1.184526
H 1.393406 0.963054 1.216477
H -0.447754 0.071648 3.488498
H 0.917317 1.258828 3.569076
H 1.254350 -0.473534 3.228167
H -0.780398 2.007363 0.267693
H -1.566433 1.596630 1.819255
H 0.832844 3.125860 1.603127
