49

C -3.764702 -3.221958 0.607095
C -3.248233 -1.870372 0.205502
C -2.092073 -1.682493 -0.470526
C -1.262425 -2.870425 -0.951334
N 0.100436 -2.513639 -1.415817
C 1.130146 -2.460677 -0.341683
C 0.703491 -1.619028 0.873793
C 0.674513 -0.212781 0.238083
C 1.741670 0.739178 0.716267
C 2.003311 1.200579 2.008406
C 3.006932 2.167805 2.181101
C 3.725306 2.655777 1.071090
C 3.449279 2.177145 -0.220414
C 2.443592 1.223696 -0.371817
N 2.078632 0.573269 -1.582680
C 1.294591 -0.573215 -1.143278
O 2.131673 -1.659872 -0.871363
C 0.286741 -1.206292 -2.084247
C -0.990128 -0.391825 -2.245355
C -1.685661 -0.274160 -0.886161
C -0.773101 0.464528 0.169153
C -1.432313 0.415326 1.541097
O -2.549003 0.880893 1.713701
C -0.682575 1.964538 -0.162398
O -1.077459 2.421409 -1.270031
O -0.187176 2.851412 0.802334
C -0.000487 4.238393 0.551231
H -3.890360 -3.866778 -0.287944
H -4.751263 -3.111282 1.103805
H -3.063970 -3.700741 1.322627
H -3.859992 -1.012757 0.468816
H -1.184294 -3.641931 -0.154822
H -1.803079 -3.345238 -1.797090
H 1.504582 -3.470846 -0.071806
H 1.487495 -1.685267 1.660362
H -0.246333 -1.965666 1.322929
H 1.438090 0.834117 2.854763
H 3.226006 2.544153 3.171752
H 4.498180 3.399430 1.215041
H 4.007956 2.535419 -1.075104
H 2.630811 0.617027 -2.467794
H 0.751460 -1.368124 -3.081919
H -1.662514 -0.901816 -2.971021
H -0.742252 0.588334 -2.694691
H -2.611075 0.324525 -1.051055
H -0.911468 -0.001611 2.396248
H 0.410907 4.720222 1.461674
H -0.971598 4.713658 0.297863
H 0.717733 4.377960 -0.284382
