46

C 3.434098 2.507208 0.941517
C 2.654771 1.234427 1.306616
C 2.044499 0.441571 0.104725
C 1.196159 1.425192 -0.785220
C 0.084648 0.827719 -1.689778
C -1.225780 0.657689 -0.956970
N -1.917039 1.708725 -0.454217
C -2.980184 1.190182 0.180882
C -3.966657 1.888009 0.876471
C -4.988707 1.144244 1.492564
C -4.999577 -0.264772 1.404294
C -3.989971 -0.942663 0.697343
C -2.990917 -0.178271 0.090072
C -1.882083 -0.546810 -0.651874
C -1.457899 -1.954167 -0.985724
C -0.357790 -2.453642 -0.046549
N 0.867618 -1.680309 -0.309431
C 2.049879 -2.511811 -0.568664
C 3.233129 -1.646379 -1.015363
O 2.827697 -0.690641 -1.967104
C 3.227472 -0.184104 -0.710997
C 1.160956 -0.674291 0.720076
H 2.769329 3.268094 0.483992
H 3.859488 2.948507 1.867449
H 4.274756 2.294054 0.253280
H 1.840357 1.534254 2.003630
H 3.337953 0.568407 1.879704
H 0.725148 2.196237 -0.136881
H 1.896537 1.983477 -1.445148
H 0.404190 -0.108308 -2.183944
H -0.103509 1.546931 -2.515660
H -1.665025 2.719892 -0.526971
H -3.945972 2.968022 0.944148
H -5.769555 1.655105 2.040730
H -5.788689 -0.827497 1.885799
H -3.994015 -2.022545 0.635805
H -1.100882 -1.994505 -2.037097
H -2.329898 -2.637765 -0.918331
H -0.688410 -2.372238 1.014150
H -0.206307 -3.538280 -0.247198
H 1.831845 -3.231386 -1.387660
H 2.333420 -3.089013 0.339137
H 4.195219 -2.119971 -1.301548
H 4.199070 0.340400 -0.802596
H 0.230679 -0.220943 1.127242
H 1.669947 -1.158035 1.586490
