54

C 6.197983 0.050721 1.134328
C 5.169615 1.120891 0.918631
C 3.901049 0.863190 0.547545
C 2.899558 1.969993 0.329143
N 1.642279 1.417025 -0.238282
C 1.879401 0.672692 -1.486598
C 0.474401 0.197572 -1.813577
C 0.066635 -0.379494 -0.462498
C 0.225985 -1.884100 -0.527070
N -0.850905 -2.545856 -0.240934
C -1.863154 -1.579323 -0.006292
C -3.190160 -1.844711 0.311571
O -3.609903 -3.177185 0.436983
C -4.939404 -3.572466 0.757582
C -4.055595 -0.744068 0.492358
C -3.584692 0.590505 0.355202
O -4.448865 1.681574 0.537476
C -5.831011 1.582982 0.865747
C -2.217102 0.818496 0.029335
O -1.635442 2.090769 -0.117434
C -2.294060 3.341439 0.041333
C -1.394999 -0.299133 -0.152022
O 1.418023 -2.529761 -0.883708
C 2.466409 -1.937329 -1.666981
C 2.911042 -0.519642 -1.207278
C 3.324020 -0.506537 0.300566
C 2.071382 -0.558243 1.211558
C 0.979032 0.369565 0.581623
H 6.342920 -0.532182 0.200322
H 7.166116 0.515202 1.415631
H 5.878336 -0.624741 1.955557
H 5.474996 2.153260 1.066050
H 3.318380 2.724428 -0.371928
H 2.682192 2.474551 1.295048
H 2.251912 1.349629 -2.287096
H 0.421111 -0.510424 -2.667620
H -0.154842 1.077186 -2.075418
H -4.989973 -4.679975 0.791965
H -5.227251 -3.172170 1.752653
H -5.643926 -3.208169 -0.019716
H -5.090760 -0.924678 0.739247
H -6.256883 2.603956 0.946341
H -5.956366 1.068679 1.841920
H -6.375123 1.033989 0.068455
H -2.687062 3.440348 1.074956
H -3.108835 3.444228 -0.705702
H -1.561150 4.155969 -0.130674
H 3.346632 -2.612667 -1.613653
H 2.167336 -1.914733 -2.735422
H 3.826216 -0.291268 -1.800314
H 4.024384 -1.333089 0.543479
H 1.735870 -1.595681 1.403858
H 2.327150 -0.174822 2.225938
H 0.377098 0.843605 1.387782
