50

C -6.081234 1.267809 0.215272
C -5.133809 0.236575 0.752985
C -3.861163 0.129369 0.328225
C -3.235568 1.023523 -0.717795
N -1.865130 0.546860 -1.039977
C -1.859774 -0.856639 -1.485299
C -0.374159 -1.087151 -1.700355
C 0.172426 -0.541802 -0.387057
C 0.467564 -1.713052 0.527938
N 1.689883 -1.758465 0.959671
C 2.367758 -0.670684 0.350163
C 3.714434 -0.344550 0.503650
O 4.515835 -1.125602 1.348857
C 5.900025 -0.889676 1.582923
C 4.207440 0.772076 -0.212619
C 3.349536 1.525713 -1.057980
O 3.799248 2.639511 -1.782468
C 5.135174 3.131151 -1.755420
C 1.999131 1.156104 -1.182711
C 1.539238 0.050266 -0.469747
O -0.477102 -2.688016 0.876621
C -1.646488 -3.005359 0.104932
C -2.494352 -1.779962 -0.340900
C -2.904227 -0.889037 0.877302
C -1.700396 -0.046921 1.371021
C -0.927414 0.470371 0.111357
H -5.679955 2.286732 0.398394
H -7.062619 1.175246 0.725635
H -6.232332 1.115685 -0.873991
H -5.500399 -0.442254 1.517832
H -3.185704 2.066969 -0.339341
H -3.851608 1.014581 -1.642706
H -2.408898 -0.969849 -2.446276
H -0.105118 -2.141022 -1.925156
H -0.029852 -0.464819 -2.557171
H 6.466907 -0.968247 0.631227
H 6.283703 -1.653954 2.289317
H 6.045246 0.115299 2.032581
H 5.245698 1.052322 -0.114932
H 5.208680 4.017370 -2.418397
H 5.409209 3.435771 -0.723253
H 5.836179 2.352608 -2.123814
H 1.326407 1.720250 -1.815989
H -2.288449 -3.665481 0.726063
H -1.357374 -3.609993 -0.779598
H -3.431342 -2.208715 -0.764705
H -3.347826 -1.487620 1.703588
H -1.074430 -0.598607 2.098717
H -2.065630 0.829934 1.953486
H -0.497372 1.475383 0.316766
