53

C -3.506360 -2.573196 -2.433113
C -2.424285 -1.674437 -1.833166
C -2.862152 -1.051367 -0.484204
C -3.995584 -0.000202 -0.624638
C -3.461860 1.305574 -0.043866
C -3.144257 0.962846 1.511639
N -2.055224 -0.071816 1.606264
C -0.956434 -0.150395 2.568167
O -1.221354 -0.051464 3.795671
C 0.526436 -0.330049 2.136339
O 1.346197 -0.625189 3.045305
C 1.089052 -0.152341 0.704763
C 0.399373 0.378788 -0.423243
N 1.169166 0.440861 -1.525506
C 2.354722 -0.068460 -1.134779
C 3.491605 -0.218935 -1.923970
C 4.643237 -0.765409 -1.332844
C 4.644034 -1.150783 0.035602
O 5.774984 -1.700765 0.656780
C 7.018911 -1.930335 0.003318
C 3.479347 -0.981564 0.808754
C 2.348152 -0.435910 0.199986
C -0.967619 0.925381 -0.206238
C -0.490078 2.181739 0.612849
O 0.112057 3.094179 -0.027347
O -0.658204 2.362130 1.987621
C -0.180381 3.505131 2.686751
C -2.161627 1.603843 -0.937929
C -1.636631 -0.450377 0.313852
H -3.131085 -3.024977 -3.375500
H -3.763028 -3.392408 -1.728333
H -4.421990 -1.991373 -2.665733
H -2.153164 -0.894663 -2.571847
H -1.519881 -2.300984 -1.674450
H -3.261813 -1.884644 0.139589
H -4.302320 0.153148 -1.682654
H -4.902762 -0.328028 -0.070127
H -4.218155 2.114212 -0.136318
H -2.903525 1.884692 2.069526
H -4.057825 0.559940 1.998994
H 0.910506 0.822967 -2.462270
H 3.489714 0.075933 -2.965467
H 5.527084 -0.885070 -1.944046
H 7.733157 -2.371575 0.728236
H 6.882353 -2.641201 -0.838842
H 7.437243 -0.971456 -0.369184
H 3.472022 -1.273852 1.849559
H 0.923346 3.577040 2.586935
H -0.656811 4.423762 2.283819
H -0.438457 3.407497 3.761040
H -2.242844 1.223036 -1.975837
H -2.083206 2.705430 -1.091761
H -0.993782 -1.364905 0.391851
