77

C -0.484381 -3.097761 1.467798
C -0.090279 -1.633440 1.241130
C 1.472378 -1.458334 1.287416
C 1.906385 -0.048187 0.732331
O 3.179981 -0.139154 0.094796
C 4.378370 -0.343292 0.789126
O 4.378782 -0.389517 2.050318
C 5.643677 -0.501499 0.039144
C 5.638490 -0.499661 -1.365454
C 6.831951 -0.654509 -2.083929
O 6.812596 -0.653395 -3.477973
C 8.048294 -0.810702 -1.397696
O 9.245321 -0.966643 -2.097787
C 8.060539 -0.811296 0.007440
O 9.251624 -0.963209 0.716947
C 6.864814 -0.658887 0.716928
C 0.858286 0.482777 -0.298514
C 0.420472 -0.719354 -1.140061
C -0.668121 -0.954417 -0.084234
O -1.872947 -1.427448 -0.686574
C -3.006018 -1.483981 0.165325
O -3.292537 -2.855439 0.395988
C -4.516383 -3.013752 1.085845
C -4.557292 -4.408424 1.734320
O -4.305453 -5.418169 0.792980
C -5.713734 -2.726113 0.131969
O -6.227237 -3.904449 -0.442675
C -5.307873 -1.742538 -0.998052
O -4.917016 -2.424314 -2.167643
C -4.197697 -0.761280 -0.549363
O -4.741745 0.250847 0.264199
C -0.577844 0.529345 0.311996
C -1.530152 1.508694 -0.398238
O -1.042727 2.836797 -0.240811
C -1.707009 3.954121 -0.756147
O -2.785864 3.808750 -1.395237
C -1.141320 5.304624 -0.547451
C 0.064444 5.466766 0.159390
C 0.600993 6.742604 0.359534
C -0.058501 7.867108 -0.141940
C -1.255971 7.718220 -0.845336
C -1.797063 6.444912 -1.048719
C -0.726398 0.484453 1.799214
O -0.948880 1.480250 2.536567
O -0.578922 -0.800385 2.283867
H -1.473257 -3.164734 1.960914
H 0.237762 -3.597226 2.148660
H -0.499686 -3.649571 0.504153
H 1.837275 -1.572744 2.331651
H 1.957629 -2.264286 0.693996
H 1.972090 0.684300 1.567301
H 4.709007 -0.381586 -1.909170
H 5.949972 -0.541555 -3.997636
H 9.281517 -0.976049 -3.110365
H 10.144505 -1.078946 0.252794
H 6.895655 -0.663533 1.799617
H 1.171736 1.376981 -0.880348
H -0.004126 -0.397649 -2.117713
H 1.150128 -1.545180 -1.280560
H -2.821665 -0.985818 1.141696
H -4.570455 -2.298098 1.940694
H -3.808638 -4.457494 2.558270
H -5.554739 -4.579739 2.192066
H -3.320388 -5.465510 0.678803
H -6.512043 -2.229694 0.735878
H -6.941048 -4.240461 0.159890
H -6.206244 -1.144128 -1.267112
H -4.135486 -2.993649 -1.948166
H -3.818352 -0.255504 -1.464769
H -5.091405 -0.170802 1.090427
H -1.607065 1.271080 -1.481132
H -2.538641 1.443682 0.053299
H 0.593546 4.609807 0.557313
H 1.529138 6.859190 0.904217
H 0.358024 8.853862 0.014814
H -1.766065 8.590314 -1.233732
H -2.726715 6.354024 -1.596485
