46

C 4.185224 0.844888 -0.021347
C 3.112712 -0.247677 -0.198993
C 3.531649 -1.458716 0.663052
C 1.643496 0.212165 0.149776
C 1.311865 1.673056 -0.285017
C 0.179907 2.328617 0.519402
C -1.257665 1.754018 0.413833
C -1.780414 1.825236 -1.045039
O -2.026663 2.629874 1.220514
C -1.344137 0.325307 1.066637
C -2.783410 -0.135723 1.366509
C -3.162694 -1.153991 0.306511
C -1.855350 -1.825091 -0.162429
C -1.909941 -2.003098 -1.690326
O -1.750424 -3.119835 0.392431
C -0.695934 -0.912950 0.381092
C 0.604800 -0.776095 -0.471499
O 0.348267 -0.447805 -1.811664
H 5.206413 0.413959 -0.101843
H 4.110372 1.602402 -0.829542
H 4.088406 1.332545 0.972495
H 3.154707 -0.561382 -1.264397
H 2.859894 -2.327476 0.528038
H 4.550722 -1.799820 0.380462
H 3.538983 -1.184629 1.739979
H 1.561739 0.172839 1.259444
H 2.174223 2.335920 -0.090807
H 1.127205 1.762615 -1.374791
H 0.483850 2.348251 1.590296
H 0.139483 3.396832 0.206533
H -1.160751 1.276864 -1.762743
H -1.799827 2.883953 -1.381604
H -2.815960 1.437076 -1.113151
H -2.940140 2.742008 0.847893
H -0.857672 0.444765 2.064339
H -3.535278 0.676627 1.405255
H -2.800978 -0.642669 2.357748
H -3.677736 -0.624712 -0.524582
H -3.885511 -1.894182 0.715554
H -2.790055 -2.624604 -1.963538
H -1.008187 -2.538526 -2.055524
H -2.015100 -1.028208 -2.210662
H -1.895046 -3.057743 1.373694
H -0.302637 -1.472543 1.264525
H 1.026808 -1.805140 -0.471679
H 1.110782 -0.777205 -2.354833
