56

C -5.880952 -2.432384 -3.024776
O -4.944774 -1.688060 -2.255146
C -3.591279 -2.028753 -2.175252
O -3.154482 -3.026589 -2.813668
C -2.669159 -1.214399 -1.349745
C -1.329197 -1.324435 -1.490307
O -0.440403 -0.521598 -0.735978
C -0.859318 0.442857 0.252238
O 0.042396 0.417135 1.343451
C 1.180426 1.223219 1.094413
O 1.929739 0.654818 0.024646
C 3.208374 1.252221 -0.071888
C 3.821774 0.903902 -1.431887
O 3.820298 -0.508168 -1.626510
C 4.316714 -1.110695 -2.785435
C 4.283307 -2.595790 -2.911126
O 4.830191 -0.416081 -3.704220
C 4.109159 0.776757 1.098405
O 5.028975 1.792968 1.406885
C 3.257685 0.431218 2.347935
O 2.856811 -0.915258 2.298977
C 2.001758 1.320787 2.415994
O 2.375969 2.658047 2.638203
C -2.249606 0.033737 0.742483
C -3.047655 0.933206 1.629356
C -2.541471 1.583667 2.886836
O -3.277823 2.744565 3.156474
C -4.345880 0.764043 1.353776
C -4.550698 -0.110896 0.150807
C -3.157138 -0.086238 -0.474918
H -6.883895 -1.968342 -2.925784
H -5.929805 -3.478878 -2.654985
H -5.584451 -2.424829 -4.095242
H -0.904841 -2.044767 -2.178084
H -0.936040 1.451076 -0.219479
H 0.854620 2.253930 0.813260
H 3.114730 2.364978 -0.043566
H 4.862294 1.293145 -1.487398
H 3.221340 1.385587 -2.234928
H 4.144977 -2.887321 -3.973914
H 5.237611 -3.019736 -2.535163
H 3.442222 -3.006312 -2.314244
H 4.669666 -0.138346 0.792026
H 5.759509 1.372337 1.932072
H 3.857795 0.595843 3.274254
H 3.644186 -1.460616 2.562219
H 1.367801 0.980419 3.270013
H 2.647875 2.728151 3.590762
H -2.166628 -0.954337 1.256194
H -2.641184 0.863567 3.729739
H -1.471075 1.853639 2.767624
H -2.932289 3.094865 4.019046
H -5.153900 1.157612 1.962633
H -5.314293 0.324282 -0.528650
H -4.836346 -1.136183 0.472752
H -3.093617 0.846432 -1.086580
