52

C -6.137170 2.889631 2.464888
O -4.827439 2.555381 2.025387
C -4.532075 1.346800 1.384763
O -5.445563 0.501778 1.180151
C -3.142899 1.058640 0.969051
C -2.109405 1.720364 1.537043
O -0.765749 1.425493 1.199733
C -0.381517 0.408621 0.253679
O 0.765621 0.828272 -0.459671
C 1.937650 0.596486 0.298445
O 2.263556 -0.781529 0.222309
C 3.360592 -1.087679 1.065208
C 3.545460 -2.610191 1.080145
O 2.368594 -3.224418 1.530161
C 4.641813 -0.388852 0.551361
O 5.708925 -0.636156 1.431561
C 4.418887 1.134281 0.397576
O 4.516501 1.806838 1.632419
C 3.081016 1.431961 -0.310420
O 2.791840 2.803310 -0.217253
C -1.543553 0.228626 -0.722739
C -2.791247 -0.114085 0.081486
C -3.713049 -0.567107 -1.002705
C -3.003620 -1.033010 -2.034087
C -1.517560 -0.821234 -1.849050
O -0.935235 -0.264319 -3.001898
C -0.799644 -2.131006 -1.447677
O -0.910961 -3.096828 -2.458930
H -6.117544 3.895292 2.933994
H -6.835553 2.907222 1.601823
H -6.486697 2.149266 3.215254
H -2.291336 2.504576 2.259360
H -0.214277 -0.550703 0.797164
H 1.781653 0.917596 1.358083
H 3.147621 -0.778227 2.115339
H 3.784068 -2.969114 0.052654
H 4.383849 -2.881161 1.760158
H 2.535482 -4.202344 1.490491
H 4.882140 -0.806390 -0.455666
H 6.542280 -0.422419 0.935938
H 5.232821 1.528385 -0.248802
H 3.830440 1.437628 2.243386
H 3.195034 1.141920 -1.382709
H 2.158952 3.014041 -0.952453
H -1.705160 1.222257 -1.212645
H -2.604743 -0.989975 0.744030
H -4.786625 -0.689794 -0.917948
H -3.451858 -1.528271 -2.890769
H -1.117696 -0.878470 -3.759279
H 0.278981 -1.920146 -1.294009
H -1.200998 -2.530679 -0.487832
H -1.784603 -3.550560 -2.328953
