51

C -4.440426 -2.499503 -2.281601
C -3.501835 -1.346481 -2.086956
C -2.813566 -1.117621 -0.950080
C -2.917975 -2.042212 0.210594
O -2.224537 -1.862752 1.246597
C -1.874816 0.083270 -0.888105
C -0.417894 -0.400774 -1.048803
C 0.559391 0.701677 -0.642364
C 1.974732 0.244723 -0.850742
N 2.524941 -0.105526 -2.037002
C 3.793109 -0.457985 -1.750127
C 4.763927 -0.918429 -2.638273
C 6.027965 -1.251038 -2.116307
C 6.290055 -1.120673 -0.733655
C 5.291634 -0.654530 0.141293
C 4.052162 -0.328405 -0.406224
C 2.892764 0.141482 0.170078
C 2.566499 0.392286 1.598740
C 1.408511 1.408452 1.695064
C 0.963769 1.477802 3.134229
O 1.154784 2.528015 3.804043
O 0.351783 0.377757 3.729347
N 0.295896 1.056991 0.769557
C -1.073335 1.372593 1.105947
C -2.107778 0.928395 0.364711
C -3.484836 1.369006 0.704564
O -4.423796 1.192912 -0.119928
O -3.743683 1.984168 1.934970
C -5.041855 2.423182 2.315962
H -5.266769 -2.448534 -1.541640
H -4.878605 -2.456230 -3.300728
H -3.893638 -3.460026 -2.175080
H -3.387270 -0.669629 -2.925665
H -3.589299 -2.889289 0.190544
H -2.078004 0.767172 -1.743488
H -0.229293 -1.294725 -0.413312
H -0.249057 -0.693428 -2.108737
H 0.390502 1.597835 -1.279723
H 2.062108 -0.112931 -2.973207
H 4.552807 -1.020576 -3.694861
H 6.804068 -1.611905 -2.778569
H 7.265453 -1.382100 -0.344556
H 5.483114 -0.553464 1.201658
H 2.274916 -0.576133 2.060640
H 3.461661 0.788051 2.125814
H 1.798287 2.407335 1.395195
H 0.049270 0.411126 4.695410
H -1.271561 1.997433 1.967483
H -5.742458 1.561746 2.339966
H -4.991518 2.874169 3.328144
H -5.410303 3.187321 1.599185
