55

C -5.447145 1.963664 0.735944
C -4.201019 1.107855 0.473448
C -4.446888 -0.374625 0.997954
C -3.833690 -1.516590 0.094811
C -2.468085 -1.022256 -0.361204
C -2.590914 0.291728 -1.177357
C -3.924917 1.038791 -1.022919
C -1.473832 1.066750 -0.606814
C -1.750238 1.800479 0.554472
C -0.683419 2.423555 1.210643
C 0.643608 2.113116 0.835723
O 1.711466 2.763680 1.453549
C 0.890119 1.078166 -0.101184
C 2.265365 0.596524 -0.320210
O 3.104393 1.385168 -0.832145
C 2.645529 -0.789499 0.041255
C 3.901519 -1.245985 0.169169
C 5.120531 -0.412252 0.153203
C 5.239449 0.717765 0.982400
C 6.421885 1.464060 0.989590
C 7.499431 1.076427 0.188505
C 7.399252 -0.063489 -0.613991
C 6.218037 -0.812328 -0.624120
C -0.212615 0.450350 -0.709368
O -0.168929 -0.892876 -1.193269
C -1.275441 -1.832702 -0.971148
C -1.657755 -2.513067 -2.298314
C -0.798008 -2.915869 0.014465
O -3.064355 1.774556 1.103372
H -6.331817 1.549332 0.205644
H -5.280730 3.005201 0.386149
H -5.663739 1.992576 1.825117
H -4.029368 -0.457821 2.024941
H -5.535630 -0.582530 1.085773
H -3.736636 -2.451975 0.686635
H -4.482317 -1.724397 -0.783114
H -2.051371 -0.812867 0.660884
H -2.427253 0.150409 -2.264982
H -4.740205 0.508294 -1.562941
H -3.839231 2.059802 -1.459039
H -0.875367 3.081597 2.048289
H 1.561767 3.487189 2.146928
H 1.849837 -1.505526 0.192277
H 4.037941 -2.311126 0.313625
H 4.421201 1.016037 1.626422
H 6.505510 2.338328 1.622162
H 8.414912 1.653717 0.196622
H 8.238518 -0.369478 -1.225140
H 6.155836 -1.698190 -1.244486
H -1.865836 -1.777300 -3.098951
H -2.555802 -3.152549 -2.160456
H -0.822076 -3.150986 -2.657783
H -1.609407 -3.645960 0.220681
H -0.474734 -2.459727 0.974479
H 0.072664 -3.463144 -0.406206
