18

O 2.932597 -1.675548 0.428499
C 2.482285 -0.512615 0.242150
O 3.370583 0.556895 0.162028
C 1.025965 -0.284646 0.109769
C 0.122137 -1.358371 0.189383
C -1.256640 -1.139983 0.063711
O -2.148645 -2.208212 0.143422
C -1.745595 0.155858 -0.143047
O -3.121322 0.353551 -0.265749
C -0.850962 1.235928 -0.224148
O -1.333931 2.527511 -0.429927
C 0.527409 1.012381 -0.097820
H 4.369195 0.411741 0.251316
H 0.483127 -2.366951 0.348948
H -1.827657 -3.157793 0.292336
H -3.522686 1.271346 -0.416044
H -0.710817 3.324214 -0.492338
H 1.204957 1.854693 -0.162488
