65

C 9.349626 3.266171 -0.430493
C 8.185453 2.653884 0.303860
C 7.853955 3.126028 1.700004
C 7.470167 1.685995 -0.309268
C 6.287069 0.991834 0.329812
C 5.771926 -0.216414 -0.501184
C 4.313234 0.051032 -0.690913
C 3.480654 -0.814641 -1.292074
C 1.999080 -0.631527 -1.483112
O 1.323531 -1.791891 -1.041202
C 0.994685 -1.696921 0.335675
O -0.184772 -0.910830 0.492331
C -1.407533 -1.643727 0.549063
C -2.531940 -0.712649 0.071464
O -3.805088 -1.260181 0.403368
C -5.010549 -0.661773 0.029038
O -5.008129 0.389415 -0.668116
C -6.271942 -1.326189 0.410552
C -7.500090 -0.787971 0.340248
C -7.801707 0.623076 0.024348
C -7.187056 1.675513 0.727491
C -7.537844 3.002009 0.456249
C -8.516069 3.289187 -0.506457
O -8.878324 4.606772 -0.780553
C -9.141621 2.244032 -1.193595
C -8.793281 0.916381 -0.922137
C -1.376830 -2.958830 -0.274815
O -2.626063 -3.601336 -0.220688
C -0.254102 -3.901167 0.236099
O -0.767185 -4.871142 1.118928
C 0.881503 -3.113688 0.929597
O 0.653784 -3.010002 2.314347
C 4.044179 1.358865 -0.119917
O 2.944135 1.970587 -0.127100
O 5.187301 1.890339 0.433718
H 9.850324 4.051957 0.174337
H 8.994873 3.728807 -1.377354
H 10.099907 2.480865 -0.668329
H 6.819857 3.527744 1.732773
H 7.949512 2.283775 2.416749
H 8.541822 3.932302 2.030938
H 7.763673 1.387212 -1.313649
H 6.560462 0.632395 1.344774
H 6.261397 -0.302183 -1.495390
H 5.918786 -1.164067 0.061133
H 3.903495 -1.735553 -1.678380
H 1.588891 0.289587 -1.021649
H 1.815703 -0.526541 -2.572764
H 1.812739 -1.195946 0.908067
H -1.614965 -1.892097 1.614416
H -2.456757 -0.558546 -1.028270
H -2.428360 0.274329 0.573019
H -6.195009 -2.357948 0.733944
H -8.345633 -1.437493 0.533101
H -6.453704 1.468442 1.496181
H -7.057096 3.804690 1.001407
H -8.452762 5.383897 -0.288358
H -9.904178 2.460363 -1.931772
H -9.298124 0.116726 -1.451621
H -1.157039 -2.683658 -1.333877
H -2.628214 -4.283028 -0.940509
H 0.189938 -4.409345 -0.654638
H -1.087543 -5.630823 0.565321
H 1.848824 -3.641572 0.750855
H 1.019027 -3.834534 2.731605
