84

C -1.371768 -2.901771 -2.820197
O -0.847066 -1.896168 -1.963010
C -0.843461 -0.539623 -2.304114
O -1.271171 -0.161687 -3.429686
C -0.335137 0.481487 -1.314149
C -1.191082 0.542167 -0.005516
C -2.704959 0.391955 -0.261216
C -3.498241 0.449891 1.057128
C -4.955630 0.221392 0.785496
N -5.803416 1.097172 0.199826
C -6.985293 0.453044 0.134503
C -8.188388 0.948618 -0.363901
C -9.328594 0.107917 -0.314929
O -10.582051 0.523741 -0.786384
C -10.842996 1.805929 -1.347864
C -9.215713 -1.194090 0.228312
C -7.987575 -1.667605 0.724899
C -6.890600 -0.814373 0.657963
C -5.583028 -0.976954 1.059103
C -4.931443 -2.111572 1.781447
C -3.399989 -1.947573 1.740372
N -3.011014 -0.546695 2.049230
C -1.568451 -0.397113 2.324358
C -0.697377 -0.472337 1.048844
C 0.799752 -0.248419 1.408969
C 1.571311 0.615900 0.392003
O 2.971770 0.413477 0.595514
C 3.953831 1.362558 0.285001
O 3.620490 2.523729 -0.081720
C 5.384663 0.999662 0.392928
C 5.757267 -0.325547 0.649339
C 7.112761 -0.686221 0.741835
O 7.510553 -2.010157 0.992211
C 6.614928 -3.101802 1.171639
C 8.112671 0.286955 0.580607
O 9.445968 -0.155457 0.681582
C 10.618192 0.645639 0.577904
C 7.748080 1.634920 0.329633
O 8.743768 2.614528 0.180482
C 8.504112 3.999132 -0.050583
C 6.383635 1.971429 0.233772
C 1.181503 0.232511 -1.048170
O 1.944540 1.014308 -1.956179
C 2.523204 0.207622 -2.957045
H -2.448772 -2.711138 -3.010876
H -0.814676 -2.912360 -3.780486
H -1.264561 -3.890452 -2.329263
H -0.437553 1.484447 -1.789092
H -1.051772 1.559384 0.428034
H -2.926818 -0.565015 -0.777451
H -3.041281 1.217053 -0.927617
H -3.394655 1.467895 1.493932
H -5.588068 2.065879 -0.124357
H -8.231601 1.950774 -0.767787
H -11.913272 1.864115 -1.634982
H -10.632109 2.600617 -0.600510
H -10.221218 1.958865 -2.255425
H -10.085096 -1.837992 0.266268
H -7.902142 -2.661557 1.144905
H -5.221968 -3.076478 1.313746
H -5.276061 -2.103829 2.837294
H -3.024677 -2.258269 0.741899
H -2.963186 -2.642835 2.490864
H -1.408264 0.584614 2.822590
H -1.236809 -1.173118 3.048617
H -0.794498 -1.493872 0.621680
H 1.291434 -1.242756 1.489505
H 0.906049 0.236092 2.404637
H 1.318599 1.684750 0.577105
H 4.989944 -1.078189 0.767292
H 5.998854 -3.245994 0.258597
H 7.200775 -4.026184 1.354492
H 5.960722 -2.916879 2.049789
H 11.508646 -0.004464 0.700769
H 10.673695 1.121628 -0.422766
H 10.632728 1.407087 1.385569
H 7.919616 4.431769 0.788807
H 9.476844 4.528970 -0.115349
H 7.962434 4.138626 -1.009681
H 6.093298 2.994357 0.036300
H 1.402088 -0.863043 -1.126137
H 3.266015 -0.492617 -2.516995
H 3.060936 0.861863 -3.673555
H 1.747824 -0.352263 -3.524090
