49

C -4.146654 1.083745 -2.197230
C -3.064463 0.652156 -1.250015
C -3.149836 0.754514 0.099505
C -4.392554 1.299079 0.779892
O -5.209622 0.243474 1.204810
C -2.014872 0.235636 0.985228
C -0.618691 0.800693 0.565429
C 0.384013 -0.294703 0.173591
C 1.726290 0.291505 -0.168773
N 1.956069 1.268756 -1.078028
C 3.296668 1.354685 -1.178273
C 4.028732 2.193389 -2.017456
C 5.431471 2.080580 -1.999396
C 6.064136 1.134616 -1.161510
C 5.300876 0.293327 -0.331311
C 3.915041 0.439125 -0.360557
C 2.910777 -0.238236 0.294745
C 2.979890 -1.443778 1.162441
C 1.724647 -1.501877 2.042931
N 0.479835 -1.286954 1.269507
C -0.760664 -1.802030 1.790404
O -0.760246 -2.671525 2.704568
C -2.076421 -1.312054 1.238874
C -2.506686 -2.171804 0.027659
O -2.568359 -3.529209 0.380379
H -5.092162 0.548039 -1.971515
H -4.303414 2.180259 -2.125145
H -3.847000 0.842388 -3.238521
H -2.172006 0.223810 -1.696287
H -4.965908 1.996450 0.131575
H -4.097871 1.895231 1.668602
H -5.658275 -0.112009 0.393990
H -2.187569 0.676002 1.993997
H -0.716608 1.536193 -0.261497
H -0.187032 1.366410 1.422428
H 0.027624 -0.804375 -0.743657
H 1.248543 1.806037 -1.626829
H 3.535277 2.904842 -2.666869
H 6.029487 2.718026 -2.637516
H 7.143235 1.052826 -1.162132
H 5.776613 -0.440726 0.305929
H 3.028889 -2.348823 0.519940
H 3.886418 -1.404230 1.803281
H 1.793591 -0.722726 2.833113
H 1.708913 -2.494225 2.542865
H -2.852242 -1.477939 2.021448
H -1.831790 -2.027227 -0.842710
H -3.526499 -1.873127 -0.291424
H -1.669593 -3.914216 0.207984
