76

C 1.284638 -4.321357 1.607463
C 2.284043 -3.236057 1.210974
C 3.548403 -3.851047 0.501974
C 4.388927 -2.588679 0.100523
O 5.533174 -2.910803 -0.643046
O 4.750146 -1.966830 1.318907
C 3.510694 -1.482598 1.812893
O 2.774448 -2.565337 2.354961
C 2.733337 -1.028288 0.592066
C 2.277134 0.443394 0.543610
O 3.404479 1.318286 0.528128
C 3.806834 2.099637 1.623068
O 3.194213 2.016742 2.723294
C 4.932043 3.047231 1.471856
C 5.632351 3.134266 0.251691
C 6.664204 4.063526 0.090726
C 7.008390 4.923720 1.138522
O 8.017826 5.863323 0.953916
C 6.328803 4.834679 2.360719
C 5.302395 3.900677 2.530260
C 3.489416 -1.537670 -0.626861
C 2.170288 -2.128632 -1.156212
C 1.675082 -2.093249 0.318046
O 0.371718 -1.674080 0.721984
C -0.607979 -1.587743 -0.296917
O -1.721118 -0.907090 0.252364
C -2.668575 -0.570746 -0.747362
C -3.733623 0.335892 -0.102673
O -4.371168 1.183736 -1.057387
C -5.669733 0.959313 -1.520205
O -5.976729 -0.163491 -2.014515
C -6.690127 2.021639 -1.367889
C -6.474495 3.081241 -0.466805
C -7.471015 4.038172 -0.245977
C -8.686771 3.958274 -0.936868
O -9.691367 4.895413 -0.713759
C -8.899076 2.923839 -1.852368
C -7.913041 1.950200 -2.058326
C -3.275706 -1.858454 -1.380950
O -4.176116 -2.514733 -0.518026
C -2.162729 -2.828607 -1.839174
O -1.594275 -2.340109 -3.030041
C -1.063035 -2.984254 -0.762893
O -1.556566 -3.705662 0.332222
H 0.946922 -4.883606 0.709875
H 1.762535 -5.037679 2.307262
H 0.409303 -3.873018 2.131155
H 3.286224 -4.498696 -0.362669
H 4.123070 -4.475665 1.217774
H 5.216189 -3.401369 -1.446258
H 3.663229 -0.683113 2.566255
H 1.608243 0.655161 1.406565
H 1.692390 0.630884 -0.378529
H 5.388551 2.483355 -0.577276
H 7.188538 4.123108 -0.853249
H 8.274186 6.515588 1.689723
H 6.583807 5.497687 3.176228
H 4.784875 3.860299 3.481460
H 3.998548 -0.767697 -1.241658
H 1.709176 -1.397336 -1.851125
H 2.236232 -3.125209 -1.635731
H -0.225305 -0.990141 -1.143972
H -2.177053 0.026941 -1.546047
H -4.479842 -0.241793 0.486019
H -3.223495 1.002625 0.626368
H -5.550435 3.155183 0.088628
H -7.298043 4.833526 0.466563
H -9.573886 5.642555 -0.031072
H -9.831663 2.877227 -2.399289
H -8.105852 1.144103 -2.757321
H -3.849987 -1.567664 -2.287505
H -3.758517 -2.562748 0.378541
H -2.626171 -3.825173 -2.036701
H -1.053730 -3.074600 -3.413990
H -0.199489 -3.529954 -1.204240
H -1.598296 -4.660469 0.071045
