51

C -4.529366 -1.345228 1.585180
C -3.061160 -0.923150 1.525468
C -2.521011 -0.922543 0.075058
C -3.008457 0.292802 -0.770286
C -1.904157 0.713615 -1.776361
C -1.381543 -0.553882 -2.490474
N -0.796796 -1.491776 -1.493651
C 0.464629 -2.156375 -1.849044
C 1.634409 -1.197506 -2.069414
C 2.075734 -0.507256 -0.816428
C 1.292609 0.208505 0.106349
N 2.112895 0.911026 0.937605
C 3.371449 0.634007 0.571806
C 4.540227 1.156926 1.124680
C 5.766374 0.778698 0.551279
C 5.795171 -0.093105 -0.557700
C 4.598485 -0.595646 -1.099690
C 3.393858 -0.217028 -0.497128
C -0.239248 0.333749 0.141311
C -0.600011 0.848523 1.532220
O -0.332025 0.134101 2.539759
O -1.182245 2.108587 1.714190
C -1.485708 2.637149 2.999184
C -0.716217 1.318646 -0.991428
C -0.964290 -1.055216 -0.085432
H -4.881739 -1.316012 2.637860
H -4.652109 -2.380616 1.202152
H -5.156194 -0.653729 0.983213
H -2.471281 -1.633195 2.144063
H -2.992276 0.082492 1.983490
H -2.946149 -1.839356 -0.398063
H -3.260265 1.159651 -0.120776
H -3.932044 0.016658 -1.324557
H -2.301034 1.445423 -2.513098
H -0.668437 -0.270786 -3.288886
H -2.228616 -1.061540 -2.999859
H 0.304101 -2.731812 -2.786422
H 0.734693 -2.900664 -1.067928
H 1.424146 -0.436967 -2.844670
H 2.471339 -1.809557 -2.463887
H 1.842235 1.580555 1.692146
H 4.505757 1.838397 1.964873
H 6.692255 1.164985 0.957106
H 6.743644 -0.372132 -0.997906
H 4.625745 -1.254508 -1.956403
H -2.207192 1.975507 3.523333
H -1.939936 3.642145 2.881351
H -0.556445 2.729912 3.600197
H -1.006042 2.319220 -0.612295
H 0.107622 1.520540 -1.712228
H -0.575386 -1.832234 0.610143
