78

C -5.547263 -1.290358 -0.822524
O -4.561384 -1.032800 0.153363
C -3.284032 -1.409297 -0.331404
O -3.149291 -2.820344 -0.372087
C -2.266752 -3.168171 0.671479
C -1.597128 -4.511090 0.360076
C -3.149731 -3.283809 1.975086
C -3.335131 -1.894722 2.566234
O -4.245194 -1.639630 3.341752
C -2.328634 -0.844177 2.143154
C -0.962285 -1.546121 2.229803
C -1.217947 -1.995350 0.764344
O -0.227900 -2.051855 -0.265677
C 1.094066 -1.703057 0.097340
O 1.745188 -1.267000 -1.082909
C 3.009197 -0.662437 -0.813807
C 2.832751 0.848989 -0.572615
O 4.099097 1.503201 -0.504817
C 4.870048 1.810665 -1.631105
O 4.404607 1.623694 -2.788385
C 6.229211 2.368879 -1.456486
C 6.954858 2.853608 -2.562303
C 8.236285 3.386648 -2.388058
C 8.808980 3.435653 -1.113484
C 8.100307 2.950123 -0.010088
C 6.817977 2.417474 -0.179245
C 3.799658 -1.356478 0.335128
O 5.179726 -1.261275 0.087769
C 3.370628 -2.832705 0.439866
O 3.727961 -3.507668 -0.741694
C 1.839593 -2.936231 0.672044
O 1.583589 -3.033099 2.049496
C -2.176008 -0.840320 0.584992
C -1.545734 0.474871 0.058333
O -2.501375 1.531381 0.132028
C -3.300513 1.946479 -0.942799
O -3.071593 1.522122 -2.108382
C -4.413063 2.891588 -0.705004
C -5.220664 3.333872 -1.768876
C -6.283252 4.215215 -1.533470
C -6.551972 4.667364 -0.238055
O -7.614254 5.544595 -0.018541
C -5.749599 4.236351 0.825698
C -4.688462 3.351469 0.595383
H -5.578742 -2.367057 -1.096915
H -6.536776 -1.028696 -0.398120
H -5.390484 -0.662472 -1.730337
H -3.117708 -1.028782 -1.366185
H -1.086596 -4.476640 -0.625843
H -0.850858 -4.754439 1.146878
H -2.359574 -5.318448 0.323587
H -2.660854 -3.931396 2.737742
H -4.139902 -3.730228 1.727131
H -2.400377 0.144690 2.649315
H -0.185948 -0.776569 2.416485
H -0.872100 -2.379879 2.963827
H 1.112227 -0.865266 0.815188
H 3.605912 -0.782414 -1.743678
H 2.297687 1.024758 0.384333
H 2.216930 1.295813 -1.384543
H 6.521759 2.840268 -3.554845
H 8.786825 3.761263 -3.239762
H 9.802388 3.847577 -0.980012
H 8.547096 2.982299 0.974949
H 6.290610 2.043147 0.688618
H 3.566555 -0.853127 1.304568
H 5.642129 -1.561891 0.909165
H 3.909717 -3.292994 1.302119
H 3.739382 -4.477851 -0.526462
H 1.458981 -3.849278 0.152440
H 1.604583 -3.993723 2.283850
H -1.165375 0.345729 -0.978532
H -0.671365 0.765697 0.679259
H -5.035692 2.999213 -2.781988
H -6.901024 4.543900 -2.360771
H -7.824211 5.903198 0.908113
H -5.950620 4.581252 1.832777
H -4.089140 3.026097 1.436094
