55

C -6.440091 0.678593 0.362016
C -5.665055 -0.617933 0.082300
C -5.402964 -0.767589 -1.422619
C -4.403086 -0.765771 0.988011
C -3.735810 -2.105524 0.812477
C -2.567589 -2.264420 0.174467
C -1.796886 -1.133458 -0.473604
C -1.666434 -1.418112 -1.978832
O -0.481534 -1.080048 0.078776
C -0.110439 0.227127 0.322117
C 1.156523 0.673100 0.720414
C 2.245107 -0.302239 0.957383
O 1.971078 -1.406185 1.503622
C 3.630120 -0.016945 0.524267
C 4.655287 -0.823533 0.834091
C 6.053563 -0.578488 0.403246
C 6.950522 -1.660659 0.379898
C 8.280181 -1.473416 -0.009775
C 8.732126 -0.202462 -0.370107
C 7.856792 0.884955 -0.335215
C 6.525412 0.703892 0.053012
C 1.336005 2.067447 0.896297
O 2.554989 2.571548 1.349150
C 0.269617 2.955350 0.634963
C -0.982946 2.472431 0.227160
O -2.016841 3.369587 -0.035805
C -1.149729 1.087896 0.093152
C -2.385449 0.305545 -0.238080
C -3.369339 0.379895 0.949813
H -6.588426 0.815922 1.454231
H -7.441441 0.630278 -0.116980
H -5.906761 1.561773 -0.048072
H -6.348124 -1.452213 0.361909
H -6.371409 -0.821481 -1.964389
H -4.855398 -1.707522 -1.635434
H -4.845123 0.098208 -1.826398
H -4.792443 -0.772058 2.031334
H -4.235147 -2.984380 1.210291
H -2.158535 -3.267953 0.097083
H -2.662483 -1.443967 -2.465909
H -1.056546 -0.629191 -2.469417
H -1.163153 -2.394826 -2.145567
H 3.792871 0.853240 -0.095684
H 4.460597 -1.727634 1.399588
H 6.619044 -2.654501 0.655671
H 8.960792 -2.314771 -0.031138
H 9.762183 -0.058960 -0.669879
H 8.212171 1.871927 -0.602134
H 5.883859 1.572745 0.099575
H 2.701765 3.564615 1.486797
H 0.413005 4.021370 0.759058
H -2.918963 3.066363 -0.380296
H -2.846892 0.726373 -1.153943
H -3.871590 1.366842 0.969102
H -2.786985 0.319217 1.898497
