59

C -2.585593 3.265754 0.224325
C -2.569658 2.148960 1.270227
C -1.476432 1.053024 1.110911
C -0.042010 1.618528 1.073916
N 0.333531 2.119014 -0.270746
C 1.692318 2.721896 -0.256660
C 2.819670 1.696072 0.031009
C 2.525995 0.382180 -0.628313
C 1.308875 0.060642 -1.195866
N 1.324542 -1.193218 -1.705827
C 2.545960 -1.679100 -1.410889
C 3.039085 -2.946248 -1.712389
C 4.349185 -3.256043 -1.309176
C 5.133768 -2.304734 -0.620958
C 4.615203 -1.020021 -0.326818
O 5.349730 -0.038531 0.353969
C 6.682066 -0.217216 0.821284
C 3.309925 -0.747330 -0.745259
C 0.217030 1.090256 -1.338695
C -1.207801 0.507726 -1.393697
C -1.673820 0.001091 -0.014750
C -3.060846 -0.643209 -0.005592
C -4.083884 -0.104766 -0.700440
O -5.366500 -0.654668 -0.666027
C -6.444289 -0.072779 -1.385359
C -3.264993 -1.839223 0.859624
O -4.305742 -2.545613 0.754156
O -2.283691 -2.189153 1.793951
C -2.404397 -3.317533 2.651309
H -3.308852 4.044836 0.545245
H -2.928645 2.897619 -0.758340
H -1.594737 3.752685 0.132247
H -3.575508 1.682862 1.316150
H -2.419406 2.632541 2.260649
H -1.537734 0.476226 2.062296
H 0.651556 0.813401 1.401888
H 0.043251 2.439781 1.819584
H 1.885083 3.198423 -1.243164
H 1.737724 3.540050 0.494890
H 2.913727 1.537159 1.126195
H 3.785261 2.095670 -0.345233
H 0.565622 -1.685598 -2.226181
H 2.432472 -3.671947 -2.238550
H 4.759712 -4.233330 -1.527525
H 6.137065 -2.578746 -0.324920
H 7.018340 0.713743 1.321820
H 6.720600 -1.049999 1.554873
H 7.360666 -0.427845 -0.032104
H 0.386134 1.587780 -2.319791
H -1.262368 -0.316798 -2.135262
H -1.869279 1.301612 -1.779164
H -0.957110 -0.820006 0.214555
H -3.935057 0.784391 -1.294395
H -6.617897 0.966303 -1.033496
H -6.215429 -0.066239 -2.472137
H -7.362830 -0.670413 -1.213371
H -2.482303 -4.246687 2.048004
H -3.302721 -3.211002 3.295552
H -1.504564 -3.382231 3.296713
