52

C 5.831038 1.153786 0.970466
C 5.845709 0.511484 -0.397455
C 5.079622 -0.564579 -0.676967
C 4.106170 -1.191624 0.286600
C 2.722746 -0.533132 0.168909
C 1.742943 -1.015198 1.265103
C 1.341517 -2.487619 1.071853
C 0.504118 -0.092527 1.377203
C -0.369915 -0.040905 0.118122
O -1.462797 0.821794 0.359942
C -2.383354 0.770931 -0.716705
O -3.107187 -0.458902 -0.685770
C -4.199453 -0.392417 0.211584
C -4.681215 -1.809903 0.556975
O -4.848974 -2.576044 -0.604286
C -5.312788 0.517760 -0.381378
O -6.218984 -0.199526 -1.183285
C -4.701284 1.697213 -1.187125
O -5.526396 2.828726 -1.083793
C -3.294114 2.033270 -0.665142
O -2.717990 3.058510 -1.435855
C 6.788821 1.021282 -1.423939
O 7.613381 1.930452 -1.135350
O 6.777498 0.502584 -2.717934
H 6.399231 0.519861 1.683183
H 4.794089 1.283054 1.342488
H 6.291195 2.164308 0.952143
H 5.143035 -1.028676 -1.654125
H 4.488596 -1.138905 1.328317
H 4.018259 -2.267799 0.027364
H 2.306962 -0.751130 -0.839047
H 2.838089 0.569467 0.249834
H 2.265112 -0.944158 2.245526
H 0.539590 -2.768685 1.787409
H 0.983063 -2.672492 0.037626
H 2.209332 -3.151573 1.266887
H 0.842720 0.939192 1.618955
H -0.122322 -0.431865 2.231739
H 0.232775 0.351272 -0.730797
H -0.723972 -1.068861 -0.117745
H -1.847523 0.804632 -1.695811
H -3.869602 0.051767 1.182078
H -3.920729 -2.297092 1.208083
H -5.638613 -1.753844 1.122214
H -5.168056 -3.466173 -0.301971
H -5.885814 0.932113 0.477719
H -5.715523 -0.557613 -1.959887
H -4.594346 1.414269 -2.261506
H -6.322043 2.653918 -1.652083
H -3.384414 2.369497 0.396888
H -3.108639 3.914140 -1.117872
H 7.420439 0.845961 -3.422112
