56

C 3.270808 6.197700 -0.393546
O 2.406240 5.094960 -0.141881
C 2.844883 3.910098 0.455915
O 4.050307 3.791638 0.806994
C 1.892960 2.797068 0.669955
C 0.562126 3.002202 0.577918
O -0.362164 1.956436 0.813642
C 0.006918 0.590507 1.094868
O -0.880055 -0.263048 0.393380
C -1.793581 -0.948871 1.244719
O -2.177502 -2.175603 0.641828
C -2.833690 -1.972326 -0.602302
C -3.084544 -3.342795 -1.252715
O -3.921187 -4.139052 -0.454538
C -4.153923 -1.186624 -0.412113
O -4.755508 -0.952721 -1.660861
C -3.877071 0.151647 0.296520
O -3.194629 1.017458 -0.576103
C -3.051933 -0.103781 1.569041
O -2.713561 1.114168 2.177098
C 1.432180 0.371760 0.575674
C 2.196819 -0.872116 0.902387
C 1.687752 -2.284562 0.811902
O 2.199254 -2.925907 -0.353673
C 1.726866 -2.659953 -1.642617
C 2.350074 -3.345212 -2.810312
O 0.757071 -1.874475 -1.827340
C 3.492918 -0.570387 1.025543
C 3.728452 0.908535 0.935698
C 2.321100 1.447091 1.189378
H 4.084039 5.892225 -1.087728
H 2.689495 7.016922 -0.861627
H 3.706617 6.565104 0.560545
H 0.171257 3.975373 0.310186
H 0.008468 0.445249 2.200598
H -1.315083 -1.235294 2.209482
H -2.173044 -1.414288 -1.305378
H -2.111137 -3.857450 -1.427634
H -3.562741 -3.206530 -2.245963
H -3.349921 -4.529564 0.258916
H -4.840082 -1.790999 0.226735
H -5.692923 -0.679996 -1.479664
H -4.855908 0.602995 0.583858
H -3.330313 1.940078 -0.235006
H -3.690154 -0.691269 2.270970
H -2.412830 0.899161 3.099002
H 1.425501 0.476221 -0.535635
H 2.023857 -2.844958 1.710171
H 0.581960 -2.316660 0.801139
H 2.541180 -2.608664 -3.617722
H 1.665469 -4.134172 -3.186971
H 3.313093 -3.809583 -2.511289
H 4.282756 -1.310151 1.123365
H 4.090935 1.171014 -0.082054
H 4.443934 1.243961 1.716716
H 2.178194 1.467440 2.297218
