64

C 4.321527 -3.970659 1.303959
C 3.818988 -3.179430 0.091367
C 4.951516 -2.305528 -0.471156
C 2.586843 -2.333358 0.482684
C 1.973149 -1.640393 -0.696322
O 1.633342 -2.305413 -1.712785
O 1.750287 -0.262669 -0.640061
C 1.230893 0.480711 -1.737869
C 0.802185 1.880782 -1.264011
C 1.897829 2.810607 -0.777732
O 1.854097 3.937632 -1.639794
C 0.471450 4.107193 -1.879271
O 0.258617 5.041627 -2.901456
C -0.144838 4.567073 -0.512059
C 0.105029 3.333649 0.431117
C -0.522831 3.546652 1.809363
O 1.511205 3.208646 0.528976
C -0.356583 2.005122 -0.277491
O -0.478308 0.903923 0.626824
C -1.443457 -0.078633 0.297329
O -1.121535 -1.250717 1.020790
C -1.807387 -2.386133 0.502928
C -1.626172 -3.545803 1.497925
O -2.284859 -3.280955 2.708669
C -3.309257 -2.088418 0.163118
O -4.131905 -3.196333 0.435913
C -3.798575 -0.848043 0.942937
O -5.131638 -0.537512 0.615315
C -2.871299 0.376048 0.700106
O -2.812091 1.155826 1.867596
C -1.302730 2.266106 -1.481397
C -0.036570 2.677881 -2.257158
H 4.660850 -3.281627 2.108862
H 5.169993 -4.625908 1.009758
H 3.510691 -4.617640 1.704583
H 3.518440 -3.913989 -0.691041
H 4.623852 -1.793681 -1.399461
H 5.262907 -1.539629 0.271849
H 5.829751 -2.935041 -0.728300
H 1.810832 -2.988350 0.934916
H 2.877052 -1.576156 1.245482
H 0.367603 -0.052014 -2.189140
H 2.015935 0.578271 -2.518040
H 2.907855 2.348442 -0.772526
H -0.720394 5.067212 -3.064573
H -1.215012 4.850967 -0.588872
H 0.402386 5.458227 -0.132510
H -0.137194 4.484521 2.262182
H -0.269954 2.704878 2.487088
H -1.626440 3.620877 1.715764
H -1.398397 -0.321080 -0.785080
H -1.298358 -2.703526 -0.436184
H -0.540200 -3.719403 1.678641
H -2.033453 -4.483912 1.062904
H -1.700094 -2.665629 3.222755
H -3.361706 -1.856442 -0.928439
H -4.968037 -3.073703 -0.085516
H -3.773657 -1.103904 2.025661
H -5.164668 -0.357317 -0.362153
H -3.280783 0.991884 -0.131876
H -3.685795 1.621914 1.944387
H -1.744044 1.377393 -1.972565
H -2.076467 3.045683 -1.344455
H 0.049581 2.369198 -3.322454
