53

C 4.904904 0.673219 -2.713043
C 4.285137 1.184939 -1.438249
C 5.014863 2.226668 -0.623671
C 3.082013 0.693878 -1.066327
C 2.351789 1.067952 0.204763
C 2.474253 -0.008833 1.308133
O 3.801486 -0.069649 1.771929
C 1.961502 -1.425307 0.895841
C 2.128457 -2.422858 2.055779
C 0.508688 -1.445710 0.349531
C -0.553187 -0.906890 1.316064
O -1.826562 -1.070597 0.725722
C -2.819020 -0.408988 1.491923
O -2.796341 0.998343 1.275182
C -3.197930 1.397032 -0.032370
C -2.073405 1.200332 -1.072727
O -2.283162 2.038533 -2.176204
C -4.582940 0.826645 -0.437554
O -4.879700 1.147179 -1.772883
C -4.681800 -0.691276 -0.204272
O -3.921576 -1.404850 -1.147044
C -4.208489 -1.016967 1.214615
O -4.179716 -2.409967 1.393839
H 4.228843 0.881444 -3.569249
H 5.067104 -0.422957 -2.636693
H 5.882948 1.155781 -2.918657
H 5.190378 1.855139 0.407122
H 4.417954 3.161972 -0.585503
H 6.002171 2.472330 -1.066951
H 2.609336 -0.055247 -1.696586
H 2.706983 2.037768 0.609900
H 1.284258 1.232187 -0.043418
H 1.859858 0.340738 2.164994
H 4.353616 -0.483723 1.058417
H 2.609240 -1.798480 0.071952
H 1.628100 -2.054570 2.975744
H 3.205614 -2.570667 2.282077
H 1.703737 -3.412800 1.784226
H 0.457564 -0.869731 -0.598471
H 0.243034 -2.492346 0.082467
H -0.349154 0.167548 1.519218
H -0.510775 -1.479438 2.267713
H -2.642455 -0.575072 2.581437
H -3.341979 2.498716 0.030990
H -1.102218 1.465914 -0.600979
H -2.016782 0.148385 -1.418139
H -1.522322 1.879062 -2.793307
H -5.336769 1.317190 0.224165
H -5.855839 1.008371 -1.891666
H -5.752024 -0.997644 -0.283987
H -4.455898 -1.441845 -1.982775
H -4.938830 -0.568286 1.929776
H -4.134956 -2.572567 2.372314
