51

C -5.721428 0.378381 0.745514
C -4.250535 0.487558 0.413517
C -3.928859 0.514530 -0.902339
C -2.541325 0.518381 -1.495547
C -1.580044 -0.524954 -0.885290
C -2.230876 -1.923670 -0.797182
C -0.878924 -0.001150 0.431982
C -0.391138 -1.154268 1.367097
O 0.200805 0.867065 0.067280
C 1.393130 0.229904 -0.370106
O 2.268655 0.106247 0.737986
C 3.434608 -0.619239 0.383564
C 4.235484 -0.879298 1.666714
O 5.283331 -1.775551 1.418016
C 4.263950 0.181271 -0.650172
O 5.378506 -0.571279 -1.055941
C 3.387062 0.505743 -1.877921
O 4.064265 1.359648 -2.766750
C 2.042253 1.120740 -1.441288
O 1.179551 1.224305 -2.544570
C -1.825451 0.918471 1.266585
C -3.246083 0.390798 1.567196
O -3.744636 1.081061 2.687731
H -5.892591 0.204099 1.827950
H -6.240943 1.314933 0.452031
H -6.173487 -0.475378 0.196359
H -4.740352 0.506360 -1.627127
H -2.644263 0.305215 -2.582727
H -2.107163 1.538442 -1.436802
H -0.795036 -0.650985 -1.658312
H -2.738253 -2.166823 -1.755291
H -1.458451 -2.703218 -0.631958
H -2.979361 -1.988403 0.014780
H 0.239294 -1.891413 0.830233
H 0.204024 -0.741819 2.209539
H -1.236800 -1.721000 1.803111
H 1.196175 -0.765763 -0.830309
H 3.158470 -1.613919 -0.040666
H 4.638223 0.079221 2.065382
H 3.556061 -1.318099 2.431874
H 5.761615 -1.886227 2.280493
H 4.596486 1.133516 -0.171590
H 6.037531 0.069745 -1.430547
H 3.176369 -0.445399 -2.416802
H 4.248614 2.209356 -2.287014
H 2.216987 2.129382 -0.995862
H 1.456835 2.031759 -3.051056
H -1.322620 1.130299 2.237461
H -1.918084 1.918174 0.788420
H -3.187561 -0.672707 1.864183
H -3.844022 2.035956 2.430521
