74

C -1.682324 -2.855669 -2.068594
C -2.419459 -2.790502 -0.731101
C -2.688417 -4.237360 -0.172080
C -3.400420 -3.979583 1.201384
O -3.638729 -5.167512 1.909299
O -4.615419 -3.332631 0.887520
C -4.190451 -2.062078 0.409595
O -3.695003 -2.205720 -0.912383
C -2.985931 -1.676106 1.255004
C -3.073219 -0.372216 2.089705
O -2.827330 0.783154 1.294955
C -3.765201 1.410440 0.474001
O -4.992851 1.137087 0.578943
C -3.307501 2.395505 -0.531892
C -4.194808 2.910375 -1.491961
C -3.734325 3.782118 -2.479571
C -2.393010 4.163247 -2.508508
C -1.505559 3.670588 -1.548225
C -1.960677 2.794376 -0.561680
C -2.611327 -2.922239 2.046638
C -1.160634 -2.747562 1.578123
C -1.734416 -1.923755 0.400696
O -1.080557 -0.722388 0.014983
C 0.289339 -0.934710 -0.276119
O 1.038992 -0.849521 0.923582
C 2.410185 -1.164946 0.726284
C 2.669673 -2.689184 0.652030
O 2.444891 -3.203113 -0.631944
C 3.101507 -0.319916 -0.382933
O 3.460316 0.954924 0.161223
C 4.491648 1.746395 -0.368119
O 5.126567 1.357414 -1.389110
C 4.827332 3.035934 0.264470
C 5.939211 3.772547 -0.178836
C 6.273718 4.984749 0.432774
C 5.503928 5.473577 1.492543
C 4.396633 4.745972 1.942684
C 4.054550 3.534204 1.331286
C 2.223686 -0.111246 -1.637873
O 2.283597 -1.240723 -2.477036
C 0.770829 0.166866 -1.240502
O -0.024437 0.235825 -2.397398
H -2.306541 -3.400343 -2.810232
H -0.716413 -3.395204 -1.967269
H -1.511219 -1.837378 -2.460781
H -3.367912 -4.797297 -0.857341
H -1.758159 -4.834070 -0.070426
H -2.749705 -5.513727 2.188136
H -5.025992 -1.338139 0.441209
H -2.295476 -0.399708 2.881561
H -4.059567 -0.303935 2.600751
H -5.235834 2.619018 -1.494368
H -4.422207 4.161461 -3.222762
H -2.041142 4.835556 -3.280512
H -0.464792 3.970504 -1.571836
H -1.255539 2.420348 0.172977
H -2.818770 -2.885313 3.137852
H -0.600185 -2.126720 2.310210
H -0.607076 -3.671027 1.317703
H 0.438035 -1.923426 -0.758838
H 2.911450 -0.868230 1.675330
H 3.726589 -2.887646 0.933348
H 2.010168 -3.206139 1.386091
H 2.607197 -4.182927 -0.571912
H 4.037762 -0.848986 -0.680676
H 6.553564 3.412904 -0.991175
H 7.137889 5.541650 0.090089
H 5.769968 6.408631 1.968731
H 3.793295 5.131677 2.754508
H 3.187716 2.991897 1.694074
H 2.584075 0.784254 -2.198459
H 3.043397 -1.099763 -3.098209
H 0.733106 1.149721 -0.712861
H -0.922278 0.545737 -2.107115
