55

C 6.616513 1.998557 2.048038
O 5.196460 2.063376 1.969651
C 4.385834 1.044451 1.448636
C 4.923404 -0.171144 0.945047
C 4.077119 -1.170399 0.433839
C 2.705496 -0.934501 0.425724
C 2.181564 0.243786 0.904881
C 2.993539 1.246855 1.430466
C 0.706459 0.174219 0.752563
C -0.120741 0.190840 2.014184
C -1.515644 0.053596 1.401074
C -1.492756 0.911655 0.086515
C -2.178129 0.070644 -1.059175
C -1.311044 -1.171245 -1.413117
C -0.809124 -1.781730 -0.081759
C 0.573547 -1.215049 0.176313
N 1.696332 -1.835386 -0.017876
N -1.739699 -1.382865 1.040568
C -3.159280 -1.542407 0.609592
O -4.015842 -1.418400 1.715365
C -3.523974 -0.465382 -0.474828
C -4.510659 -1.000296 -1.552163
C -5.872053 -1.340253 -0.938670
O -4.712269 -0.025120 -2.544038
C 0.014283 1.232259 -0.126915
O 0.406761 1.178647 -1.499802
C 1.575105 1.760859 -2.000483
C 1.961299 1.518704 -3.418964
O 2.273343 2.530237 -1.286832
H 7.050412 1.890043 1.031575
H 6.925005 1.145670 2.688841
H 6.997923 2.937583 2.498701
H 5.989398 -0.351962 0.950113
H 4.481749 -2.101640 0.059376
H 2.560059 2.163843 1.808393
H -0.014950 1.159984 2.551781
H 0.120114 -0.647291 2.706914
H -2.280509 0.417605 2.123207
H -2.054990 1.859688 0.239614
H -2.335801 0.710494 -1.952925
H -1.904225 -1.929471 -1.962574
H -0.483339 -0.924979 -2.109698
H -0.753756 -2.889737 -0.155633
H -3.289376 -2.564294 0.179849
H -3.812874 -2.182689 2.315331
H -4.033203 0.392064 0.024147
H -4.121315 -1.939955 -2.007357
H -6.302314 -0.454107 -0.424848
H -6.573544 -1.659684 -1.738529
H -5.779869 -2.174734 -0.212610
H -4.102663 -0.240997 -3.297494
H 0.218992 2.249705 0.279589
H 3.066904 1.468655 -3.509645
H 1.576839 2.344093 -4.053222
H 1.529486 0.557605 -3.768931
