70

C 3.907215 -1.978055 0.424566
C 3.611394 -0.527619 0.129252
C 2.649014 0.158431 0.786254
C 1.768810 -0.415274 1.868282
O 0.407424 -0.191122 1.552920
C -0.160865 -1.290039 0.854247
O -1.147913 -0.795281 -0.047370
C -2.377236 -0.563564 0.615331
C -3.260678 0.356899 -0.237002
O -4.450920 0.647471 0.475636
C -5.576007 0.656323 -0.380814
O -5.485947 1.759710 -1.270295
C -6.549003 1.717144 -2.203805
C -7.901075 1.920868 -1.504424
O -8.930319 1.823416 -2.455505
C -8.088261 0.850975 -0.415098
O -9.221636 1.164244 0.351484
C -6.842901 0.786346 0.487714
O -6.949551 -0.319188 1.350429
C -3.054986 -1.925927 0.945627
O -3.888508 -2.379392 -0.097608
C -1.998251 -3.001725 1.322350
O -1.661865 -3.790324 0.205799
C -0.722954 -2.340164 1.866914
O 0.244597 -3.327439 2.122186
C 4.469136 0.191399 -0.887293
C 5.749887 0.722031 -0.231098
C 6.668718 1.384391 -1.272060
C 7.942627 2.037173 -0.661200
C 8.742817 2.735706 -1.779254
C 8.843088 0.976950 -0.002613
O 7.591621 2.987020 0.318994
H 3.017733 -2.602178 0.201666
H 4.194590 -2.096963 1.490821
H 4.749832 -2.348397 -0.195459
H 2.499849 1.209545 0.553647
H 1.988116 -1.477068 2.104272
H 1.994225 0.139911 2.801693
H 0.595025 -1.796209 0.207592
H -2.198096 -0.013053 1.571244
H -2.714788 1.308336 -0.408019
H -3.422227 -0.103694 -1.240088
H -5.636195 -0.311992 -0.938211
H -6.403031 2.537986 -2.936418
H -6.538703 0.764182 -2.780658
H -7.904197 2.935472 -1.037183
H -9.723600 2.278945 -2.069264
H -8.231736 -0.136679 -0.915814
H -9.492946 0.332180 0.818348
H -6.783223 1.730970 1.079993
H -6.365875 -0.133892 2.131696
H -3.705164 -1.760048 1.833965
H -3.340603 -2.433529 -0.923026
H -2.421661 -3.644857 2.131888
H -2.231670 -4.601714 0.244837
H -0.992961 -1.806808 2.811340
H 0.230169 -3.508146 3.100436
H 3.904426 1.031965 -1.347785
H 4.733441 -0.509229 -1.710399
H 6.281859 -0.128429 0.246307
H 5.475953 1.460184 0.553647
H 6.969206 0.623862 -2.027061
H 6.085953 2.167416 -1.806454
H 8.118554 3.502661 -2.285600
H 9.077477 1.998083 -2.541164
H 9.636994 3.242287 -1.357196
H 9.037785 0.134764 -0.703791
H 8.371368 0.576047 0.920084
H 9.819573 1.422668 0.293762
H 6.997075 3.658505 -0.106193
