51

C 4.733198 2.320129 -3.397592
O 3.766164 1.915756 -2.434508
C 3.293776 0.602709 -2.295099
C 3.740115 -0.463933 -3.109918
C 3.221334 -1.761654 -2.935585
C 2.254354 -2.014661 -1.951807
C 1.818062 -0.950951 -1.161723
C 2.338059 0.319922 -1.314808
N 1.717153 1.272115 -0.456590
C 0.625237 0.577190 0.157005
C -0.651744 1.155610 0.171645
C -0.782006 2.615218 0.374487
O -1.780254 3.236166 -0.077641
O 0.186183 3.310712 1.093957
C -1.937854 0.333871 -0.257937
C -1.417860 -0.795920 -1.095730
C -0.479752 -1.570592 -0.154143
C 0.862696 -0.954686 -0.014030
C 1.403365 -1.821425 1.198015
C 0.126607 -2.545363 1.785276
N -0.913921 -1.659824 1.293144
O -0.684113 -0.564050 2.082145
C -2.363584 -1.771499 1.357100
C -2.935762 -0.381402 0.791441
C -3.506214 0.557206 1.893152
C -4.532087 1.543052 1.318624
O -2.483419 1.268185 2.538396
H 4.921279 3.407752 -3.287913
H 4.354556 2.125943 -4.423333
H 5.686834 1.775515 -3.232753
H 4.482044 -0.302200 -3.879796
H 3.573263 -2.570427 -3.562746
H 1.861899 -3.012623 -1.806823
H 1.791768 2.304559 -0.591122
H 0.103446 4.308568 1.247296
H -2.554121 0.974222 -0.925260
H -2.242282 -1.448103 -1.463334
H -0.876323 -0.422211 -1.994427
H -0.386146 -2.585929 -0.618834
H 1.876140 -1.164806 1.960257
H 2.141066 -2.586429 0.871469
H 0.155327 -2.599086 2.898642
H 0.009650 -3.579571 1.385784
H -2.710992 -2.627752 0.735596
H -2.695661 -1.963862 2.401691
H -3.823803 -0.692853 0.194305
H -4.046296 -0.073500 2.637584
H -4.937536 2.182111 2.131491
H -4.069989 2.198452 0.554182
H -5.380249 0.993900 0.857252
H -2.851609 1.586448 3.403872
