54

C 2.540221 0.390733 3.843276
O 1.918125 0.606128 2.583017
C 1.767906 -0.408737 1.633380
O 2.201509 -1.570586 1.870877
C 1.069797 -0.102627 0.324800
C 1.856204 -0.707801 -0.882755
C 1.109597 -1.870616 -1.525477
C -0.212912 -1.356311 -2.103014
N 0.003552 -0.337046 -3.158184
C 0.820921 0.813752 -2.741887
C 2.061742 0.369483 -1.964827
O 3.170337 0.114417 -2.797559
C 3.249025 1.269014 -1.982196
C 4.306340 1.122735 -0.888034
C -1.178696 -0.890485 -0.972309
N -2.018644 0.224783 -1.416128
C -2.068934 1.191158 -0.390912
C -2.879359 2.325842 -0.370895
C -2.837322 3.154029 0.761365
C -2.000871 2.828022 1.845740
C -1.200773 1.674872 1.799988
C -1.250400 0.867350 0.657481
C -0.489896 -0.407933 0.365612
C -0.892016 -1.507356 1.339576
C -2.146581 -2.092034 0.731810
O -3.276410 -1.374468 1.195145
C -4.459455 -2.055073 0.839919
O -2.035924 -1.979259 -0.668601
H 2.538302 1.339899 4.417220
H 3.590286 0.059911 3.697107
H 1.979852 -0.377888 4.416591
H 1.180128 1.003124 0.234811
H 2.843392 -1.100662 -0.556696
H 0.925775 -2.674693 -0.780616
H 1.726613 -2.311852 -2.339594
H -0.689957 -2.228094 -2.607124
H 0.486192 -0.798971 -3.965256
H 1.107459 1.400559 -3.642888
H 0.218768 1.489065 -2.101346
H 3.195647 2.203388 -2.580347
H 3.847632 1.302780 0.106421
H 5.099789 1.881521 -1.048931
H 4.784269 0.120050 -0.903847
H -2.649278 0.207388 -2.248767
H -3.528946 2.559458 -1.204301
H -3.455044 4.041591 0.803757
H -1.977132 3.466040 2.719534
H -0.567495 1.416999 2.636937
H -1.056457 -1.138916 2.376380
H -0.127978 -2.312296 1.362661
H -2.206413 -3.168550 1.017892
H -5.327108 -1.458265 1.188259
H -4.550460 -2.164522 -0.263346
H -4.514917 -3.049054 1.336278
