72

C -1.596506 -3.219784 -2.461647
C -0.911213 -2.096547 -2.209022
C -0.437473 -1.691355 -0.824291
C -1.626211 -1.547017 0.175742
O -1.433178 -0.383303 0.962533
C -2.431557 0.601908 0.763150
O -2.322299 1.533530 1.819398
C -3.452185 2.397704 1.882689
C -3.102702 3.544756 2.846088
O -4.272453 4.167272 3.305687
C -3.906033 2.910945 0.471572
O -4.380973 4.234398 0.510954
C -2.740176 2.807392 -0.522280
O -3.144306 3.235064 -1.798615
C -2.218891 1.347379 -0.588042
O -2.818679 0.643223 -1.646320
O -1.754273 -2.666052 1.060195
C -1.006008 -3.844081 0.972792
C 0.133926 -3.896602 0.273091
C 0.875991 -5.173476 0.131308
O 0.435230 -6.230811 0.657219
O 2.055912 -5.210137 -0.618697
C 2.792114 -6.407606 -0.837633
C 0.698928 -2.619160 -0.312112
C 1.611881 -1.929086 0.737494
C 2.571410 -0.921235 0.112178
C 2.301132 0.459488 0.188536
N 1.340374 1.096876 0.901607
C 1.496242 2.406379 0.614720
C 0.742413 3.471948 1.105976
C 1.075987 4.769000 0.672377
C 2.151056 4.972270 -0.223564
C 2.904208 3.881593 -0.695111
C 2.543241 2.609244 -0.254552
C 3.065070 1.363407 -0.513287
C 4.143387 0.971189 -1.281541
C 4.446255 -0.394378 -1.307459
N 3.691552 -1.314962 -0.609168
C 4.113432 -2.722278 -0.699754
H -1.837354 -3.927530 -1.681946
H -1.918704 -3.438438 -3.474770
H -0.719346 -1.417957 -3.034557
H 0.003284 -0.684020 -0.974469
H -2.575782 -1.518862 -0.405441
H -3.445955 0.133010 0.803572
H -4.297549 1.833059 2.338163
H -2.444308 4.288287 2.335932
H -2.548079 3.129215 3.719057
H -3.978270 4.899354 3.907984
H -4.722164 2.245405 0.098270
H -5.318379 4.194743 0.839097
H -1.911309 3.456382 -0.156079
H -3.085847 4.226105 -1.806593
H -1.129665 1.400708 -0.799099
H -3.793365 0.602540 -1.464006
H -1.380354 -4.719131 1.488246
H 2.154745 -7.158430 -1.351492
H 3.669274 -6.181418 -1.474184
H 3.159607 -6.813067 0.131856
H 1.322194 -2.880079 -1.191916
H 0.982611 -1.463445 1.517275
H 2.193125 -2.687513 1.298859
H 0.658368 0.700464 1.578471
H -0.077707 3.309500 1.794338
H 0.502368 5.617546 1.024974
H 2.396628 5.975432 -0.547848
H 3.729143 4.029516 -1.378558
H 4.740616 1.689626 -1.827464
H 5.297981 -0.711389 -1.894713
H 3.552751 -3.238728 -1.502316
H 3.995419 -3.249293 0.265963
H 5.191401 -2.798693 -0.938820
