65

C -3.581697 -2.504681 -1.015608
C -3.978879 -1.058782 -0.710129
C -4.932821 -0.496461 -1.828774
C -5.090159 1.063370 -1.710044
O -5.290910 1.608851 -2.987378
C -3.819014 1.695350 -1.048526
C -2.607613 0.945318 -1.620150
C -2.771991 -0.039972 -0.455863
O -1.504266 -0.534964 -0.010645
C -1.498924 -1.141398 1.277088
O -0.698571 -0.381930 2.175487
C 0.685439 -0.294868 1.825885
C 0.978887 1.026611 1.097751
O 2.384642 1.233660 0.956919
C 3.106331 0.942388 -0.208662
O 2.504260 0.561315 -1.250334
C 4.579203 1.081358 -0.212947
C 5.322205 0.810610 -1.375302
C 6.718399 0.936784 -1.375366
O 7.444908 0.666696 -2.534347
C 7.385145 1.335590 -0.204901
O 8.774091 1.466869 -0.180593
C 6.651784 1.606093 0.957127
O 7.318218 1.999900 2.116244
C 5.256002 1.479568 0.951782
C 1.246778 -1.530244 1.077372
O 2.617317 -1.669391 1.359737
C 0.493289 -2.769760 1.548787
O 1.026052 -3.912979 0.930151
C -0.996190 -2.616411 1.186984
O -1.776779 -3.467911 1.989865
C -3.512964 1.055167 0.345384
C -2.734840 1.980070 1.312593
O -1.635299 2.593731 0.696600
C -4.602199 0.283250 1.022409
O -5.324024 0.716450 1.958784
O -4.740183 -0.980544 0.485617
H -4.421479 -3.045648 -1.501945
H -2.705113 -2.529769 -1.696715
H -3.362419 -3.050567 -0.079472
H -4.533178 -0.764525 -2.831810
H -5.934580 -0.974234 -1.753572
H -5.977541 1.287406 -1.073563
H -5.605557 2.541029 -2.853134
H -3.759283 2.803779 -1.102963
H -1.672475 1.541344 -1.542968
H -2.702013 0.514462 -2.639423
H -2.515849 -1.173755 1.717708
H 1.229714 -0.237894 2.795071
H 0.468390 1.069350 0.113000
H 0.582870 1.855003 1.720642
H 4.822017 0.499925 -2.284453
H 6.989097 0.377556 -3.392053
H 9.347053 1.281472 -0.995067
H 6.817516 2.202798 2.973552
H 4.705542 1.690834 1.860082
H 1.090036 -1.405406 -0.021239
H 3.021525 -2.166023 0.601152
H 0.616444 -2.852253 2.655511
H 0.687482 -4.695686 1.438555
H -1.104792 -2.955071 0.135312
H -1.718525 -3.132866 2.923160
H -3.434263 2.752058 1.710316
H -2.382400 1.407863 2.191425
H -1.943848 3.470113 0.347978
