52

C -2.178057 4.264517 -1.067998
O -1.830145 2.885919 -1.100744
C -1.414365 2.178261 0.033622
O -1.531755 2.691792 1.182071
C -0.905974 0.799311 -0.105033
C 0.093312 0.341198 0.762424
N 1.118783 1.235752 1.213969
C 2.344614 0.543508 0.998778
C 3.629025 1.086058 1.121132
O 3.775136 2.416021 1.543049
C 5.031322 3.052650 1.751165
C 4.730613 0.252162 0.815158
C 4.523666 -1.075496 0.392367
C 3.224133 -1.595364 0.290015
C 2.148301 -0.758936 0.585575
C 0.697285 -1.089877 0.677256
C 0.407650 -2.145667 1.826375
C -0.721856 -3.088251 1.241534
N -1.285116 -2.204235 0.231121
O -1.895012 -1.290363 1.047214
C -2.305993 -2.434862 -0.781974
C -2.604976 -0.999825 -1.427195
C -3.862710 -0.357652 -0.877721
C -5.137675 -0.360705 -1.677730
O -3.876326 0.130715 0.226893
C -1.328751 -0.014591 -1.396807
C -0.159280 -0.900963 -1.701743
C -0.000195 -1.774010 -0.442501
H -2.924359 4.459444 -0.259921
H -2.630887 4.539042 -2.043876
H -1.269412 4.877295 -0.909908
H 1.048863 2.270628 1.296617
H 5.640228 2.467353 2.500404
H 5.585260 3.130478 0.773753
H 4.852793 4.086440 2.164911
H 5.746866 0.614681 0.902071
H 5.374556 -1.701024 0.154863
H 3.059222 -2.619493 -0.009119
H 0.060759 -1.622448 2.744412
H 1.300448 -2.757283 2.085042
H -0.299511 -4.015826 0.793367
H -1.467850 -3.385501 2.017119
H -1.937306 -3.148583 -1.554740
H -3.219642 -2.881969 -0.334405
H -2.804848 -1.211750 -2.504429
H -4.908324 -0.264160 -2.750932
H -5.694287 -1.318919 -1.509080
H -5.787470 0.485944 -1.364377
H -1.435152 0.696564 -2.249223
H 0.764984 -0.309491 -1.908948
H -0.345580 -1.529955 -2.604778
H 0.604996 -2.648532 -0.789095
