50

C -4.865899 -0.755820 -0.557780
C -4.461537 0.687447 -0.261642
C -2.944227 0.986795 -0.109633
C -2.133706 0.084058 0.873066
C -1.632333 -1.143896 0.068487
C -0.496664 -0.668751 -0.892862
C 0.878966 -1.011118 -0.202273
N 2.071365 -1.223253 -1.029338
C 2.130185 -1.108531 -2.484326
C 3.165007 -0.940187 -0.147805
C 4.511352 -1.247207 -0.360902
C 5.443941 -0.885066 0.624612
C 5.026244 -0.211912 1.789215
C 3.671073 0.100202 1.982540
C 2.750452 -0.312292 1.016461
C 1.312770 0.055935 0.838537
C 1.225637 1.432842 0.201746
C -0.259001 1.576142 0.052583
C -0.889918 0.934239 1.340206
C 0.279590 0.111420 1.986976
O 0.795643 0.740737 3.136607
N -0.672668 0.806310 -1.156589
C -2.105429 1.138092 -1.431715
O -2.593703 0.317028 -2.463844
H -5.971671 -0.809568 -0.644200
H -4.440809 -1.108517 -1.518221
H -4.564761 -1.425224 0.274719
H -4.966789 0.979242 0.685601
H -4.879182 1.343928 -1.055323
H -2.956569 2.005732 0.344693
H -2.749699 -0.226759 1.744386
H -1.338403 -1.959435 0.760763
H -2.431671 -1.597484 -0.540728
H -0.577111 -1.234375 -1.844712
H 0.756160 -1.981638 0.333331
H 1.900515 -0.066209 -2.788492
H 1.397430 -1.800561 -2.947094
H 3.138223 -1.380738 -2.857359
H 4.834885 -1.760335 -1.256248
H 6.491951 -1.115104 0.483170
H 5.757092 0.084593 2.530279
H 3.359982 0.663798 2.850729
H 1.637650 2.223855 0.865945
H 1.744421 1.500784 -0.781107
H -0.520241 2.654860 -0.045605
H -1.233190 1.732188 2.035944
H -0.046447 -0.903738 2.294191
H 0.936090 1.702391 2.941294
H -2.156038 2.202305 -1.768323
H -3.328960 0.812796 -2.909959
