30

C 3.003663 1.472189 0.126852
C 2.555715 0.053671 0.283531
C 3.004475 -0.947754 -0.463522
C 2.379084 -2.147719 0.038406
O 2.553868 -3.307263 -0.417637
O 1.548223 -1.851323 1.102049
C 1.597406 -0.447074 1.341462
C 0.190088 0.181790 1.262342
C -0.611781 -0.196133 -0.010070
O 0.084942 0.270194 -1.140744
C -2.053652 0.401680 -0.017511
C -2.767096 0.001942 -1.328821
C -2.884787 -0.125749 1.175315
O -1.961652 1.806029 0.052124
H 4.108833 1.529269 0.216327
H 2.695654 1.853339 -0.869218
H 2.550892 2.110687 0.913370
H 3.713296 -0.872270 -1.278057
H 2.035604 -0.260184 2.345901
H 0.275832 1.286688 1.341798
H -0.355389 -0.171849 2.160582
H -0.697204 -1.309935 -0.037470
H 0.084248 -0.459493 -1.814146
H -2.250328 0.440932 -2.208410
H -2.789380 -1.103557 -1.441410
H -3.813628 0.375646 -1.337505
H -2.818696 -1.232852 1.243730
H -3.954647 0.152508 1.061363
H -2.539632 0.321222 2.130232
H -2.883952 2.175370 0.048930
