131

C -5.469235 -0.922427 -2.076343
C -5.503279 0.433221 -1.430297
C -6.194433 0.713862 -0.300411
C -7.068667 -0.335796 0.363285
O -8.171689 -0.595782 -0.487854
C -8.765974 -1.852025 -0.210561
O -9.473727 -1.766997 1.023212
C -10.294085 -2.905647 1.212943
C -10.686411 -3.007715 2.694569
O -11.247708 -1.802503 3.138657
C -11.512637 -2.867147 0.239533
O -12.662393 -2.332335 0.852268
C -11.179560 -2.038021 -1.022778
O -11.447771 -0.677491 -0.786226
C -9.696159 -2.219354 -1.407834
O -9.464084 -3.552487 -1.790353
O -7.544126 0.117915 1.630961
C -7.902375 1.445754 1.861318
C -7.314009 2.434671 1.176584
C -7.713613 3.843193 1.409423
O -7.125501 4.772313 0.786227
O -8.737840 4.148320 2.313521
C -9.134874 5.485028 2.595862
C -6.126329 2.123961 0.282248
C -4.814985 2.331289 1.079492
C -3.648485 2.557166 0.168729
O -3.483319 3.687450 -0.365720
O -2.788021 1.498659 -0.131572
C -1.833615 1.565046 -1.187536
C -1.073843 0.227331 -1.293879
C -0.372797 -0.025463 -2.641820
C 0.316759 1.203913 -3.261373
C 0.644930 -1.117497 -2.325641
C 1.132793 -0.845850 -0.899469
O 2.297140 -0.023039 -0.938521
C 3.563789 -0.483401 -1.310727
O 3.735373 -1.694791 -1.612929
C 4.692988 0.504544 -1.354379
C 6.097650 -0.074670 -1.666823
C 7.085632 1.072442 -1.695906
C 7.408008 1.753422 -2.970059
O 8.221413 2.718054 -2.989119
O 6.808173 1.320062 -4.157469
C 7.055377 1.937641 -5.413887
C 7.528940 1.552730 -0.523554
O 7.194850 0.904987 0.673118
C 6.934382 -0.506240 0.758708
O 8.098176 -1.170031 1.226733
C 8.432485 -0.767971 2.549730
O 9.170172 0.447216 2.545306
C 10.313464 0.377578 1.700403
C 11.122538 1.665622 1.903351
O 12.126313 1.771013 0.925905
C 11.186872 -0.889177 1.966715
O 11.041927 -1.782974 0.888920
C 10.746205 -1.567227 3.277483
O 11.522011 -2.707217 3.553657
C 9.234199 -1.894984 3.253118
O 8.768175 -2.054142 4.569079
C 6.551827 -1.068910 -0.603073
C 6.691492 -2.397078 -0.839495
C 6.612363 -3.029802 -2.199890
C -0.052346 -0.152085 -0.176484
C 0.290734 0.921957 0.923254
C 1.177474 2.108633 0.491135
C 0.859847 0.268725 2.202719
O 2.060408 -0.411371 1.946072
H -5.063737 -1.676265 -1.368852
H -6.486636 -1.220029 -2.404477
H -4.808427 -0.891294 -2.968352
H -4.926316 1.219033 -1.910778
H -6.441410 -1.239426 0.539085
H -7.979537 -2.642114 -0.133974
H -9.710629 -3.833199 0.997367
H -9.774220 -3.226996 3.293583
H -11.403888 -3.847605 2.836270
H -11.581417 -1.978076 4.057674
H -11.716787 -3.914088 -0.092087
H -13.168906 -3.093344 1.241384
H -11.827795 -2.394034 -1.856869
H -11.419222 -0.220483 -1.667378
H -9.463414 -1.554304 -2.273397
H -9.840591 -3.661164 -2.704155
H -8.653381 1.653977 2.613247
H -9.479907 5.984182 1.665582
H -8.283073 6.049587 3.031297
H -9.969019 5.469713 3.326775
H -6.160991 2.846670 -0.564339
H -4.617757 1.449920 1.730003
H -4.900940 3.215977 1.745811
H -1.155360 2.424342 -1.034796
H -2.387531 1.737548 -2.136798
H -1.880473 -0.544778 -1.255849
H -1.109533 -0.406657 -3.383963
H -0.418598 2.007433 -3.475374
H 0.781868 0.919157 -4.228662
H 1.114120 1.603869 -2.605782
H 0.132786 -2.106227 -2.347545
H 1.476238 -1.150862 -3.063377
H 1.378703 -1.803142 -0.386588
H 4.438528 1.256829 -2.133115
H 4.708543 1.038568 -0.380178
H 6.061855 -0.548991 -2.668157
H 6.756339 3.006744 -5.377193
H 6.458579 1.425511 -6.196171
H 8.132039 1.857342 -5.672145
H 8.129588 2.452400 -0.476272
H 6.076160 -0.684727 1.445219
H 7.511583 -0.598122 3.155782
H 9.980343 0.384396 0.638025
H 10.443705 2.537869 1.796240
H 11.542833 1.693291 2.938362
H 12.999494 1.673847 1.387915
H 12.261849 -0.603267 2.075109
H 11.911910 -2.246274 0.771127
H 10.928111 -0.838778 4.099313
H 11.307832 -3.395780 2.871303
H 9.063437 -2.843315 2.691265
H 9.117556 -2.923962 4.892825
H 6.976623 -3.052542 -0.020603
H 6.794771 -4.122112 -2.112055
H 7.394079 -2.599522 -2.861916
H 5.616442 -2.885692 -2.662412
H -0.560433 -0.967676 0.389260
H -0.674190 1.364286 1.244771
H 0.965507 2.440847 -0.536948
H 2.259485 1.873419 0.559986
H 0.995737 2.969159 1.168724
H 0.998703 1.041740 2.996132
H 0.125085 -0.460243 2.603891
H 2.802700 0.203359 2.185169
