53

C 4.889717 0.563515 -1.075767
C 3.758342 -0.105916 -0.349593
C 2.577947 0.499993 -0.083199
C 2.373644 1.972251 -0.402179
N 0.980548 2.439125 -0.223024
C 0.108530 2.272734 -1.414681
C 0.112856 0.844856 -1.979858
C -0.565735 0.090100 -0.819370
C -1.937202 -0.470162 -1.124277
C -2.342593 -1.330865 -2.149042
C -3.693238 -1.709163 -2.214607
C -4.618556 -1.210887 -1.277786
C -4.202667 -0.318640 -0.277527
C -2.854627 0.033997 -0.221169
N -2.286096 1.006442 0.645620
C -0.998492 1.324903 0.038911
O -1.173496 2.345644 -0.902130
C 0.158086 1.881395 0.882763
O -0.275682 2.992996 1.669406
C -0.762634 2.655392 2.953823
C 0.914779 0.791162 1.689801
C 1.523422 -0.231042 0.734571
C 0.401179 -0.960468 -0.095706
C 1.031904 -1.869826 -1.149548
O 0.352131 -2.659883 -1.785047
C -0.332342 -1.890424 0.882085
O -1.279183 -1.465092 1.597885
O 0.126100 -3.201909 1.065737
C -0.480173 -4.107140 1.979974
H 4.576060 0.831069 -2.106443
H 5.210817 1.475403 -0.530008
H 5.753296 -0.130915 -1.140945
H 3.920742 -1.129769 -0.023368
H 3.025618 2.565827 0.273025
H 2.704207 2.193297 -1.440543
H 0.294218 3.054398 -2.181546
H -0.511394 0.811867 -2.900157
H 1.127203 0.495646 -2.253308
H -1.644453 -1.682077 -2.894954
H -4.027068 -2.377707 -2.997422
H -5.659322 -1.500446 -1.342089
H -4.914622 0.096978 0.423541
H -2.865504 1.685771 1.186768
H -1.407144 1.753238 2.956395
H 0.083519 2.521017 3.660283
H -1.376562 3.499408 3.328870
H 1.723627 1.268205 2.287948
H 0.251468 0.280040 2.414191
H 2.040882 -0.986089 1.372113
H 2.094091 -1.857043 -1.345265
H -0.415977 -3.703931 3.012794
H 0.053830 -5.078488 1.939154
H -1.544003 -4.268784 1.704899
