35

C -2.967879 -1.344659 -0.207500
C -1.998099 -0.369282 0.495425
C -2.782470 0.931248 0.763711
C -0.665977 -0.187905 -0.336418
C 0.034267 1.207351 -0.118390
C -0.592458 2.293457 -0.956709
O -0.935793 3.381858 -0.421766
O -0.749168 2.119910 -2.329243
C 1.540694 1.158005 -0.434883
C 2.300182 0.215990 0.530347
C 3.644311 -0.188191 -0.097854
C 1.426190 -1.001107 0.964450
O 2.210015 -2.115737 1.321854
C 0.367085 -1.358597 -0.113174
O -0.243701 -2.596255 0.160017
H -3.326478 -0.909416 -1.165275
H -3.848867 -1.542547 0.440153
H -2.506846 -2.322725 -0.434184
H -1.743225 -0.783625 1.494328
H -3.725924 0.704704 1.305708
H -2.214979 1.624683 1.415504
H -3.049265 1.435885 -0.188727
H -0.948608 -0.246531 -1.411915
H -0.044519 1.490941 0.954161
H -1.155397 2.849764 -2.902153
H 1.673839 0.824377 -1.489172
H 1.979493 2.178006 -0.352938
H 2.537702 0.795663 1.450912
H 4.268488 -0.737036 0.638737
H 3.483320 -0.829070 -0.991019
H 4.209022 0.717425 -0.407096
H 0.868096 -0.700225 1.879087
H 2.499107 -2.568278 0.486896
H 0.917948 -1.495612 -1.070613
H -0.460104 -2.632470 1.127738
