95

C 1.310417 3.551627 0.667107
C 2.695603 2.904794 0.579240
C 3.712895 3.554566 1.588181
C 5.022060 2.705551 1.390684
O 6.034603 3.074838 2.285506
O 5.427247 2.932744 0.057136
C 4.413380 2.292410 -0.701008
O 3.251953 3.103892 -0.708748
C 4.038821 1.048760 0.085486
C 4.180420 -0.306996 -0.632927
O 5.525027 -0.495176 -1.064184
C 5.940433 -1.638772 -1.757721
O 5.122787 -2.574003 -1.976676
C 7.335819 -1.748236 -2.235172
C 8.250043 -0.706502 -1.996855
C 9.568675 -0.802795 -2.453644
C 9.987101 -1.936235 -3.154874
C 9.088310 -2.978170 -3.397831
C 7.770617 -2.888676 -2.938249
C 4.705431 1.171134 1.444482
C 3.349686 0.865881 2.098629
C 2.707072 1.342249 0.776632
O 1.641278 0.596536 0.215499
C 0.554820 0.418374 1.113406
O -0.644082 0.840529 0.478535
C -1.044430 -0.076308 -0.522184
C -2.035076 0.592166 -1.493342
O -3.187744 1.102362 -0.821068
C -3.232052 2.349668 -0.183852
O -2.220759 3.105316 -0.194185
C -4.475754 2.790585 0.484171
C -5.644525 2.012901 0.389933
C -6.825458 2.435273 1.006988
C -6.853114 3.633454 1.725514
C -5.696696 4.411938 1.829579
C -4.513300 3.996002 1.210718
C -1.588935 -1.388967 0.117416
O -3.001762 -1.348221 0.256147
C -3.597036 -2.619997 0.036427
O -4.024198 -2.715406 -1.321191
C -5.283794 -2.095662 -1.519125
C -5.538710 -1.932646 -3.023717
O -4.573251 -1.091070 -3.596412
C -6.408515 -2.943471 -0.854343
O -7.533527 -2.144202 -0.577621
C -5.882227 -3.661063 0.413279
O -6.931600 -3.958229 1.305312
C -4.746793 -2.838128 1.064257
O -4.271662 -3.447006 2.241775
C -0.939155 -1.642499 1.508958
O -1.728012 -1.143553 2.568982
C 0.491802 -1.069444 1.580834
O 0.982394 -1.181203 2.892963
H 0.641485 3.127684 -0.108794
H 1.392118 4.647186 0.494837
H 0.865381 3.386358 1.669148
H 3.354702 3.544988 2.639073
H 3.907974 4.618384 1.315580
H 5.710740 2.840407 3.193911
H 4.761052 2.079877 -1.735927
H 3.889808 -1.137810 0.047356
H 3.510713 -0.321037 -1.519526
H 7.948822 0.184573 -1.460438
H 10.264643 0.005462 -2.272147
H 11.007166 -2.009094 -3.508848
H 9.412928 -3.856538 -3.940446
H 7.088766 -3.705849 -3.144206
H 5.552091 0.474027 1.636280
H 3.230714 -0.227183 2.253697
H 3.095941 1.433811 3.015244
H 0.646969 1.052708 2.028068
H -0.168481 -0.345522 -1.160262
H -1.530726 1.409751 -2.054940
H -2.363129 -0.159178 -2.242331
H -5.650412 1.085773 -0.166439
H -7.720742 1.830567 0.930932
H -7.770116 3.959514 2.197306
H -5.719782 5.338027 2.390742
H -3.627899 4.612758 1.311016
H -1.258498 -2.202350 -0.576891
H -2.881671 -3.460197 0.195837
H -5.274185 -1.072968 -1.080111
H -5.478071 -2.924273 -3.519599
H -6.558948 -1.520059 -3.202967
H -4.820060 -0.161972 -3.344089
H -6.733883 -3.743118 -1.557055
H -7.256124 -1.443791 0.068191
H -5.442406 -4.632135 0.090579
H -7.061299 -3.187644 1.913887
H -5.156489 -1.844464 1.348820
H -3.999539 -4.374570 2.015859
H -0.872077 -2.743164 1.650977
H -1.968635 -0.203355 2.369708
H 1.135600 -1.678496 0.900875
H 1.209033 -2.137998 3.035556
