58

C -3.252085 2.870532 0.729241
C -3.224090 2.096977 -0.362456
C -2.208738 0.989133 -0.559030
C -0.755810 1.530006 -0.518569
N -0.184832 1.328654 0.826912
C 0.986487 2.197156 1.102592
C 2.269401 1.721004 0.391737
C 2.602552 0.288689 0.819902
O 3.039424 0.254091 2.158053
C 1.381024 -0.565444 0.610648
N 1.561734 -1.560692 -0.206816
C 2.912639 -1.489264 -0.630867
C 3.549515 -2.354524 -1.516400
C 4.893331 -2.103098 -1.837530
C 5.568582 -1.000446 -1.274324
C 4.899473 -0.131716 -0.379733
O 5.519263 0.974571 0.218247
C 6.873660 1.349707 -0.006105
C 3.560219 -0.407742 -0.090879
C 0.036850 -0.113651 1.135921
C -1.143314 -0.998334 0.631537
C -2.427421 -0.160345 0.470225
C -3.645311 -1.018110 0.119206
C -4.790072 -0.888171 0.817072
O -4.900148 0.011950 1.878835
C -6.113317 0.167037 2.600510
C -3.610370 -1.961997 -1.032975
O -4.498646 -2.852030 -1.149919
O -2.602541 -1.861994 -1.997010
C -2.511899 -2.740449 -3.111681
H -2.535105 2.736582 1.532794
H -3.999747 3.651426 0.820700
H -3.955908 2.274768 -1.145073
H -2.368923 0.595179 -1.585074
H -0.742556 2.605903 -0.803860
H -0.140267 0.992156 -1.274908
H 1.164120 2.219706 2.199830
H 0.769013 3.246174 0.805449
H 3.110788 2.397028 0.656907
H 2.124285 1.775888 -0.709796
H 3.174798 -0.696770 2.413862
H 3.023356 -3.196685 -1.946534
H 5.413874 -2.760425 -2.521840
H 6.604115 -0.835821 -1.538764
H 7.033193 1.578112 -1.081104
H 7.554036 0.533356 0.316189
H 7.101275 2.258149 0.588225
H 0.071448 -0.211863 2.243067
H -0.891875 -1.453809 -0.345527
H -1.318567 -1.827469 1.352008
H -2.580177 0.296674 1.472758
H -5.659093 -1.481317 0.554177
H -6.921615 0.501207 1.916073
H -6.398481 -0.795901 3.074768
H -5.971628 0.931520 3.391621
H -1.631627 -2.459527 -3.725329
H -3.427036 -2.658806 -3.735536
H -2.387255 -3.786930 -2.761426
