68

O -0.295662 3.193552 -2.371348
C -0.022990 2.662490 -1.303645
C 0.173825 1.155855 -1.216751
C -1.053885 0.474148 -1.811926
C -2.284263 0.671889 -1.334724
O -3.363197 -0.004726 -1.903000
C -4.692134 0.158171 -1.421246
O -4.745701 -0.228732 -0.060841
C -5.982342 0.126423 0.552057
C -5.879295 1.523050 1.194884
O -7.022272 1.800202 1.964335
C -7.220070 -0.001644 -0.387116
O -8.348889 -0.363218 0.369293
C -6.934408 -1.070547 -1.460930
O -8.039050 -1.279829 -2.306151
C -5.648212 -0.725621 -2.259508
O -5.936792 -0.113490 -3.495602
C 1.438248 0.797561 -2.068478
C 2.159406 -0.445640 -1.538250
C 2.726763 -0.197532 -0.117624
C 2.951981 -1.537708 0.609162
O 3.744385 -1.335377 1.775898
C 3.889354 -2.312176 2.768229
O 3.144845 -3.330897 2.774193
C 4.856327 -2.133262 3.863385
C 5.978254 -1.396383 3.788053
C 6.512116 -0.769743 2.558381
C 6.620851 -1.489145 1.354751
C 7.200275 -0.897728 0.227808
C 7.709581 0.408502 0.298765
O 8.293574 1.006759 -0.816698
C 7.635101 1.115580 1.501921
C 7.055760 0.524546 2.629888
C 1.834579 0.770288 0.715471
C 0.354813 0.726649 0.290686
O -0.139914 -0.577259 0.508377
H 0.083211 3.290767 -0.422069
H -0.934834 -0.213282 -2.641349
H -2.446481 1.350936 -0.504567
H -4.964260 1.233402 -1.531592
H -6.122417 -0.601331 1.382530
H -5.784908 2.303327 0.408333
H -4.966718 1.578022 1.833294
H -6.942431 1.269948 2.800259
H -7.401028 0.976954 -0.893966
H -9.149304 -0.106371 -0.155309
H -6.750691 -2.027702 -0.923047
H -8.347161 -0.394712 -2.636008
H -5.131111 -1.689663 -2.479789
H -6.365863 0.764161 -3.307383
H 1.172061 0.644708 -3.139753
H 2.172064 1.637722 -2.056132
H 2.992706 -0.713184 -2.226293
H 1.447535 -1.301089 -1.535328
H 3.723124 0.286920 -0.233396
H 3.486388 -2.248377 -0.061150
H 1.973731 -1.989143 0.884946
H 4.629935 -2.621707 4.806121
H 6.548192 -1.261174 4.698407
H 6.262255 -2.511153 1.287841
H 7.266792 -1.458576 -0.695414
H 8.467146 0.483786 -1.663163
H 8.048043 2.117438 1.568743
H 7.019014 1.080662 3.558747
H 2.205096 1.810740 0.578397
H 1.913952 0.550754 1.802260
H -0.207874 1.441129 0.940572
H -0.567129 -0.588923 1.406979
