26

C -1.425497 -0.275417 1.469361
C -1.090362 -0.487418 -0.034335
C -1.959713 -1.655309 -0.565327
C -1.118079 0.747732 -0.979115
C 0.060753 0.115507 -1.750805
C 0.404856 -0.629530 -0.441343
C 1.257511 0.364888 0.375010
C 2.527172 -0.060291 1.052006
O 3.622531 0.622053 0.505619
C 0.807320 1.649391 0.443691
C -0.492015 1.934669 -0.246444
O -1.030297 3.072051 -0.222241
H -2.508685 -0.056607 1.580494
H -0.879797 0.547015 1.965989
H -1.196877 -1.204257 2.033715
H -1.783587 -1.882218 -1.635785
H -1.744413 -2.579464 0.012316
H -3.036460 -1.408332 -0.448434
H -2.046778 0.938166 -1.559095
H -0.269006 -0.566037 -2.564407
H 0.836948 0.822593 -2.128213
H 0.802006 -1.661010 -0.558153
H 2.458504 0.174979 2.134998
H 2.673692 -1.159571 0.956324
H 3.790155 0.219477 -0.386610
H 1.340119 2.416940 0.990782
