29

C 3.813106 1.368938 -1.425411
O 3.017885 0.381551 -0.780688
C 2.347083 0.622291 0.421986
O 2.414815 1.755393 0.974996
C 1.498067 -0.470437 1.016039
C 1.499049 -0.432173 2.550167
C 0.081978 -0.405667 0.467541
C -0.693989 0.753856 0.653094
C -2.000877 0.836588 0.163321
O -2.714465 2.017461 0.380138
C -2.561079 -0.258001 -0.527993
C -3.963765 -0.202311 -1.068126
C -1.793304 -1.418243 -0.711067
C -0.483539 -1.499885 -0.219318
O 0.251972 -2.669327 -0.414533
H 3.188031 2.248979 -1.686829
H 4.643844 1.682993 -0.758533
H 4.240396 0.942300 -2.355927
H 1.977470 -1.430865 0.730196
H 2.538516 -0.523507 2.931963
H 1.062379 0.515162 2.931827
H 0.905979 -1.282574 2.949604
H -0.282818 1.604220 1.182265
H -3.663835 2.155923 0.058316
H -4.051878 0.628280 -1.799638
H -4.680621 -0.041412 -0.235670
H -4.243052 -1.145404 -1.584458
H -2.212126 -2.267060 -1.237948
H -0.135222 -3.467069 -0.905030
