73

C -1.876595 -5.291313 1.530667
O -1.362661 -4.003719 1.211488
C -0.271204 -3.817745 0.353653
O 0.277067 -4.815401 -0.195624
C 0.235855 -2.447079 0.096073
C 1.097934 -2.215498 -0.897425
O 1.566733 -0.928766 -1.151343
C 1.589228 0.130648 -0.190447
O 2.943120 0.328630 0.189626
C 3.458872 1.593831 -0.196452
O 4.607570 1.901634 0.590190
C 5.742211 1.075387 0.322282
C 5.588290 -0.352748 0.914992
O 6.844771 -0.933227 1.146403
C 6.163884 1.122422 -1.170284
O 7.213890 0.215940 -1.410775
C 4.970652 0.806073 -2.093150
O 5.301885 0.968431 -3.451120
C 3.752913 1.669752 -1.720983
O 3.912849 3.008478 -2.131201
C 0.757178 -0.178785 1.097212
C 0.213097 1.146991 1.713688
O 1.269818 1.792866 2.381261
C -0.966119 0.957186 2.696602
N -2.267736 0.947088 2.001629
C -2.775350 2.282931 1.564534
C -3.473474 2.291830 0.190548
C -4.343706 1.093126 0.078182
C -3.980557 -0.116298 0.612799
N -4.832857 -1.098399 0.237544
C -5.743965 -0.489767 -0.548298
C -6.803754 -1.085931 -1.231480
C -7.589092 -0.270754 -2.067748
C -7.300986 1.105553 -2.202073
C -6.221300 1.682183 -1.507575
C -5.467227 0.852710 -0.681742
C -2.657954 -0.302230 1.288729
C -1.615893 -0.741556 0.231474
C -0.319099 -1.277608 0.880426
H -1.115847 -5.879615 2.085797
H -2.156361 -5.827944 0.604956
H -2.775077 -5.178128 2.171140
H 1.432728 -3.018941 -1.542682
H 1.142746 1.009152 -0.714755
H 2.713679 2.394659 0.036175
H 6.583406 1.537914 0.890446
H 4.969259 -1.009381 0.259648
H 5.068768 -0.279726 1.891448
H 7.038756 -1.520155 0.375343
H 6.521183 2.159829 -1.378882
H 7.694204 0.524989 -2.228933
H 4.690211 -0.262136 -1.951505
H 5.685429 1.879110 -3.571526
H 2.882464 1.271556 -2.284216
H 4.585464 3.436467 -1.539721
H 1.461102 -0.616219 1.845365
H -0.141637 1.803421 0.884455
H 1.044066 2.762102 2.419739
H -0.840279 0.038897 3.307130
H -0.968880 1.792858 3.434390
H -1.963227 3.040204 1.543636
H -3.507424 2.626317 2.324504
H -2.711551 2.260788 -0.614203
H -4.074574 3.217536 0.073843
H -4.760109 -2.117746 0.451557
H -7.008135 -2.145479 -1.135962
H -8.416407 -0.701856 -2.620501
H -7.908317 1.718821 -2.852161
H -5.984392 2.731524 -1.616795
H -2.790116 -1.112834 2.038469
H -1.393067 0.091089 -0.470096
H -2.073423 -1.550880 -0.383801
H -0.562932 -1.683056 1.886501
