67

C 8.022098 0.277744 -1.912198
O 8.037833 0.969639 -0.667416
C 6.893004 1.314928 0.068882
C 5.593895 1.006679 -0.383452
C 4.465292 1.361463 0.377215
C 3.101249 1.072382 -0.114757
O 2.934512 0.621747 -1.281725
O 1.997085 1.327124 0.709342
C 0.648212 1.022909 0.355086
C 0.239450 -0.371266 0.877920
C 0.415663 -0.633185 2.362877
O 1.254695 -1.774531 2.454515
C 0.831567 -2.568900 1.363806
O 1.693129 -3.655286 1.156311
C -0.617827 -3.050871 1.725223
C -1.446544 -1.716106 1.795487
C -2.929616 -1.982789 2.064349
O -0.875513 -0.964722 2.850154
C -1.156323 -0.867223 0.504231
O -2.051183 0.194240 0.204561
C -3.093268 -0.205661 -0.670898
O -4.321103 0.211044 -0.090774
C -5.391798 0.038419 -1.002415
C -6.716047 0.131935 -0.236513
O -6.800197 1.353697 0.445792
C -5.307838 1.091483 -2.143430
O -5.760910 0.528400 -3.348321
C -3.857379 1.589360 -2.329021
O -3.619453 2.656355 -1.443758
C -2.849805 0.448942 -2.065361
O -2.971582 -0.530593 -3.066808
C -0.512361 -1.663896 -0.652224
C 0.796114 -1.583984 0.146435
C 4.648808 2.007528 1.609637
C 5.933185 2.324969 2.059646
C 7.053773 1.986974 1.296016
O 8.320894 2.329226 1.772553
H 7.548304 -0.719458 -1.788207
H 7.477574 0.873621 -2.674993
H 9.067018 0.127576 -2.258245
H 5.458527 0.495909 -1.325999
H 0.496671 1.105812 -0.742442
H -0.006922 1.778680 0.836976
H 0.844091 0.224982 2.922019
H 2.597847 -3.276164 1.002485
H -0.612303 -3.549460 2.718273
H -1.026000 -3.777985 0.992809
H -3.379842 -2.552159 1.224786
H -3.046671 -2.575906 2.995413
H -3.476696 -1.025289 2.192981
H -3.137920 -1.316230 -0.791583
H -5.357222 -0.986132 -1.445075
H -6.767864 -0.705218 0.495897
H -7.569211 0.029084 -0.945143
H -7.680263 1.351746 0.904591
H -5.936711 1.981878 -1.905808
H -6.749997 0.469332 -3.283638
H -3.731773 1.960966 -3.373986
H -2.743829 3.049486 -1.688579
H -1.817805 0.874806 -2.098991
H -2.458989 -0.205420 -3.854434
H -0.435859 -1.070559 -1.589018
H -0.917537 -2.675650 -0.851734
H 1.738585 -1.440726 -0.417264
H 3.800356 2.286158 2.221962
H 6.056739 2.846005 3.002983
H 9.165998 2.122138 1.252190
