35

O 3.009354 -2.546628 -0.764296
C 2.564265 -1.391859 -0.509335
C 3.457070 -0.303293 -0.458436
C 4.833775 -0.453536 -0.710299
N 5.662168 0.622576 -0.648519
C 5.202710 1.864469 -0.344957
C 3.846814 2.065957 -0.084296
C 2.965954 0.976879 -0.139353
C 1.606702 1.147423 0.120829
C 0.742795 0.046668 0.056206
N 1.221150 -1.205181 -0.276297
C 0.315957 -2.389371 -0.237263
C -1.135088 -2.071798 -0.660218
C -1.575529 -0.803025 -0.017031
C -0.702452 0.212897 0.281587
N -1.357921 1.312871 0.725173
C -2.663724 0.979171 0.684136
C -3.752109 1.785423 1.014365
C -5.042419 1.244464 0.860822
C -5.215673 -0.073028 0.379399
C -4.100572 -0.864918 0.049205
C -2.836258 -0.305411 0.222295
H 5.253349 -1.420378 -0.957081
H 5.891918 2.697359 -0.305006
H 3.491489 3.060402 0.158451
H 1.226985 2.132853 0.358571
H 0.681974 -3.195825 -0.909224
H 0.308257 -2.794013 0.798393
H -1.805562 -2.905692 -0.361657
H -1.182533 -1.948388 -1.763306
H -0.955974 2.229938 1.019876
H -3.611136 2.797149 1.372037
H -5.908606 1.844134 1.108359
H -6.213422 -0.475151 0.261339
H -4.223707 -1.873136 -0.324469
