53

C 4.164802 1.583016 -0.937415
C 3.537457 0.219957 -0.834059
C 2.370835 -0.054738 -0.193512
C 2.026659 -1.532239 0.036341
N 0.578082 -1.880200 -0.134422
C 0.426782 -3.314728 0.234053
C 0.224016 -1.694665 -1.572076
C -0.765343 -0.552695 -1.679155
C -0.757613 0.178604 -0.307218
C -2.214743 0.394611 0.029821
C -3.098003 1.370114 -0.447572
C -4.462216 1.250624 -0.135413
C -4.928410 0.140150 0.595147
C -4.034688 -0.862902 1.003326
C -2.684571 -0.711066 0.689954
N -1.651376 -1.643943 0.951520
C -0.355526 -0.992676 0.660995
C 0.238145 -0.538705 2.057448
O -0.783345 -0.091223 2.918888
C 1.316563 0.562636 1.971155
C 1.566798 1.036404 0.530317
C 0.220909 1.453380 -0.179996
C 0.536921 2.121717 -1.567867
O 1.311157 1.308677 -2.406918
C -0.407342 2.573258 0.685419
O -0.095933 3.781774 0.503191
O -1.237141 2.283847 1.761905
H 3.480430 2.302945 -1.427353
H 5.091528 1.518798 -1.545184
H 4.441323 1.952155 0.072301
H 4.104046 -0.593404 -1.279389
H 2.390032 -1.818126 1.047103
H 2.637584 -2.170184 -0.645701
H -0.582886 -3.703862 -0.023048
H 1.155099 -3.950540 -0.318131
H 0.593842 -3.468069 1.322276
H 1.102888 -1.458146 -2.215287
H -0.226083 -2.608155 -2.027316
H -0.622483 0.071091 -2.576860
H -1.754940 -1.028272 -1.880966
H -2.742347 2.196475 -1.048192
H -5.160490 2.004562 -0.474655
H -5.982333 0.048300 0.823062
H -4.387349 -1.737552 1.534031
H -1.780836 -2.475086 1.571648
H 0.716999 -1.429048 2.528794
H -1.106328 -0.872801 3.439722
H 2.269720 0.191343 2.411136
H 1.043711 1.430810 2.609851
H 2.183537 1.954238 0.630996
H 1.104969 3.067880 -1.422764
H -0.418285 2.385559 -2.075887
H 1.405778 1.800103 -3.264043
