69

C -0.805055 1.927307 -2.376961
C -0.408878 0.839664 -1.416597
C 0.871971 0.830990 -0.861695
C 1.250211 -0.146596 0.076574
O 2.544969 -0.158771 0.632897
C 3.678162 0.582084 0.174639
O 4.679861 0.517092 1.184285
C 6.019715 0.675116 0.718133
C 6.869460 1.277636 1.847250
O 6.824697 0.460591 2.986717
C 6.146759 1.521424 -0.574294
O 5.691823 2.829473 -0.326513
C 5.326465 0.878846 -1.724376
O 6.158487 0.087531 -2.535803
C 4.155826 0.023606 -1.189330
O 4.555330 -1.317348 -1.041800
C 0.315977 -1.137432 0.482264
C 0.727045 -2.124569 1.583142
C -0.258548 -2.175165 2.763019
C 1.075625 -3.511504 1.027871
C -0.965549 -1.159917 -0.143120
O -1.902893 -2.173331 0.068300
C -1.331404 -0.142498 -1.038032
O -2.621277 -0.120803 -1.578460
C -3.725033 0.438397 -0.869808
O -4.022162 -0.378884 0.259803
C -5.392304 -0.399699 0.649039
C -5.466280 -0.820736 2.126399
O -6.797705 -0.954003 2.548281
C -6.120078 0.946135 0.404714
O -5.497366 1.955283 1.162993
C -6.083130 1.307123 -1.107018
O -7.309154 1.017364 -1.736393
C -4.905707 0.625605 -1.844992
O -5.296812 -0.619558 -2.369558
H -1.433839 2.675295 -1.850122
H -1.381102 1.502546 -3.226094
H 0.086715 2.439128 -2.798870
H 1.564659 1.604290 -1.159382
H 3.388199 1.648759 0.067546
H 6.435909 -0.335121 0.506684
H 7.924859 1.407562 1.513384
H 6.471858 2.278596 2.119587
H 7.412164 -0.318229 2.802283
H 7.224666 1.559485 -0.862651
H 6.054608 3.404047 -1.050884
H 4.888628 1.693543 -2.350437
H 6.701639 0.710344 -3.086010
H 3.330263 0.078073 -1.934803
H 3.727210 -1.863893 -0.996510
H 1.666164 -1.766599 2.055658
H -1.173388 -2.756643 2.549622
H 0.231689 -2.656244 3.637015
H -0.550893 -1.143690 3.059822
H 1.853033 -3.415633 0.239691
H 0.203575 -4.033042 0.594747
H 1.488083 -4.148369 1.839754
H -1.706897 -3.056741 0.507856
H -3.422259 1.445490 -0.502966
H -5.908878 -1.194541 0.064843
H -4.960539 -0.062343 2.761720
H -4.923005 -1.785369 2.267907
H -7.131408 -1.811691 2.175365
H -7.181552 0.845495 0.732585
H -6.135875 2.714744 1.206895
H -5.933541 2.407160 -1.192563
H -7.542683 0.074339 -1.528714
H -4.586265 1.297069 -2.676786
H -4.664845 -0.838270 -3.102196
