83

C 2.824304 -4.908048 0.436728
C 3.111430 -3.411196 0.578045
C 4.598103 -3.080393 0.182495
C 4.805079 -1.535323 -0.045900
O 5.321104 -0.921779 1.105917
C 3.457770 -0.850339 -0.445813
C 2.770045 -1.801116 -1.429437
C 2.112422 -2.455850 -0.209067
O 0.807473 -2.938110 -0.526351
C -0.084352 -3.081041 0.574008
O -1.093211 -2.079089 0.505025
C -2.004587 -2.334846 -0.549389
C -2.840461 -1.076522 -0.807715
O -1.992278 -0.027604 -1.234694
C -2.693985 1.202760 -1.209585
O -2.801567 1.650093 0.130572
C -3.759460 2.699842 0.253475
C -3.585419 3.328087 1.646950
O -3.585976 2.332505 2.632567
C -3.646681 3.756515 -0.899000
O -3.905959 5.062654 -0.450398
C -2.244535 3.694215 -1.535494
O -2.117208 4.632040 -2.577721
C -1.925587 2.260511 -2.038924
O -0.542507 2.030982 -1.954867
C -2.914516 -3.536960 -0.199353
O -3.234686 -4.229264 -1.381770
C -2.228978 -4.476961 0.819514
O -2.774219 -5.769679 0.743952
C -0.698792 -4.520984 0.619675
O -0.349630 -5.290199 -0.508419
C 2.311818 -1.146527 0.579246
C 1.177029 -0.101636 0.565391
O 1.731337 1.194981 0.766665
C 0.948216 2.329057 0.997960
O -0.273402 2.206206 1.290246
C 1.556160 3.673631 0.906167
C 2.900268 3.817341 0.524826
C 3.476800 5.085811 0.424031
C 2.718158 6.224073 0.709366
C 1.381137 6.094430 1.088118
C 0.801061 4.827103 1.188499
C 2.676799 -1.642534 1.943202
O 2.704721 -0.939399 2.987381
O 2.988308 -2.986752 1.927214
H 2.669402 -5.169940 -0.631898
H 1.929360 -5.185578 1.021187
H 3.674090 -5.504362 0.832694
H 4.863906 -3.621090 -0.751138
H 5.294319 -3.451997 0.966571
H 5.524358 -1.386978 -0.886511
H 6.248599 -1.254657 1.214822
H 3.549173 0.199668 -0.803401
H 2.029129 -1.261779 -2.062525
H 3.414295 -2.463398 -2.045070
H 0.425393 -2.941286 1.548698
H -1.451885 -2.544982 -1.492619
H -3.382105 -0.808191 0.133180
H -3.584340 -1.296592 -1.606869
H -3.708256 1.077623 -1.675571
H -4.779952 2.253240 0.223668
H -4.398530 4.062973 1.852664
H -2.613848 3.865738 1.689544
H -4.536207 2.094780 2.793857
H -4.387475 3.486676 -1.692524
H -4.890847 5.131605 -0.329711
H -1.509259 3.963648 -0.742088
H -2.816911 4.429494 -3.253484
H -2.252654 2.149550 -3.097853
H -0.120118 2.580080 -2.665886
H -3.850870 -3.164954 0.278489
H -4.119301 -4.654840 -1.238498
H -2.423945 -4.059459 1.837652
H -2.531806 -6.238231 1.584110
H -0.285316 -5.047611 1.507642
H -0.701946 -4.835357 -1.316237
H 0.646880 -0.113475 -0.410319
H 0.446954 -0.319716 1.374790
H 3.506857 2.948143 0.294722
H 4.513256 5.188323 0.129669
H 3.166198 7.206156 0.630783
H 0.797340 6.976339 1.309232
H -0.235479 4.749752 1.492434
