55

C -4.607360 -1.526984 -1.274570
C -4.310612 -0.030572 -1.393518
C -3.241641 0.542923 -0.426167
C -3.659331 0.518045 1.077374
C -2.552393 -0.143046 1.937249
C -2.303471 -1.554025 1.382922
N -1.907421 -1.467662 -0.045657
C -0.896644 -2.421509 -0.521347
C 0.452980 -2.316752 0.189364
C 1.160023 -1.007929 -0.007416
C 0.658405 0.305126 0.102024
N 1.702735 1.179374 0.136544
C 2.825015 0.456958 0.033171
C 4.134050 0.935252 0.058558
C 5.188517 0.005474 -0.002903
O 6.503759 0.492027 0.016332
C 7.664802 -0.330191 -0.037971
C 4.892968 -1.382666 -0.076137
C 3.560307 -1.830965 -0.089427
C 2.541423 -0.875055 -0.046243
C -0.797430 0.763101 0.276103
C -0.850700 2.212174 -0.217650
O -0.755876 2.445347 -1.455881
O -0.933069 3.281650 0.681490
C -0.959706 4.639384 0.259620
C -1.227936 0.648080 1.789200
C -1.814008 -0.088435 -0.578838
H -5.480091 -1.774061 -1.915041
H -3.751188 -2.129896 -1.639099
H -4.861277 -1.809521 -0.234239
H -3.992602 0.176056 -2.438800
H -5.261269 0.523635 -1.232194
H -3.196030 1.611847 -0.722690
H -4.617111 -0.023977 1.227107
H -3.824994 1.557108 1.438476
H -2.862420 -0.191597 3.003875
H -1.553383 -2.066814 2.013109
H -3.232899 -2.155487 1.464417
H -0.747598 -2.303339 -1.617167
H -1.289848 -3.450278 -0.371453
H 1.080790 -3.129216 -0.231307
H 0.383024 -2.531020 1.272246
H 1.666166 2.215666 0.261757
H 4.333810 1.996887 0.131008
H 7.675139 -0.914411 -0.982330
H 7.688874 -1.015036 0.835884
H 8.567104 0.314295 -0.009067
H 5.684559 -2.118140 -0.116600
H 3.346329 -2.889882 -0.132267
H -1.031814 5.296249 1.150492
H -1.841560 4.817271 -0.391649
H -0.028063 4.883510 -0.293467
H -0.442377 0.126592 2.381115
H -1.356733 1.630335 2.286150
H -1.521924 -0.095905 -1.653164
