47

C 5.037323 0.830396 -1.740395
C 5.550659 0.054468 -0.549923
C 6.948437 -0.508388 -0.576982
C 4.799755 -0.140015 0.556617
C 3.374434 0.330995 0.715456
C 2.376440 -0.731242 0.206854
O 2.478553 -1.934080 0.931306
C 0.945216 -0.208965 0.228334
C 0.206867 -0.039097 -1.081544
C 0.355185 0.107256 1.406411
C -1.042580 0.650366 1.527521
O -1.967744 -0.336568 1.120139
C -3.291084 0.177345 1.117932
O -4.197562 -0.883604 1.393995
C -4.373454 -1.710308 0.258963
C -5.191737 -0.986577 -0.830105
O -4.769784 -1.443705 -2.091558
C -5.028161 0.547530 -0.718075
O -5.290669 1.157023 -1.957229
C -3.605715 0.895607 -0.234825
O -3.436624 2.287374 -0.119796
H 4.825093 1.879331 -1.445627
H 4.113289 0.363891 -2.138041
H 5.783218 0.854717 -2.561745
H 6.911061 -1.612091 -0.455222
H 7.544694 -0.071959 0.252454
H 7.465390 -0.281883 -1.532709
H 5.224972 -0.696264 1.388462
H 3.213538 1.293442 0.185049
H 3.196602 0.531662 1.793585
H 2.654144 -0.970221 -0.840726
H 2.423081 -1.721378 1.898841
H -0.671239 -0.717017 -1.113504
H -0.129546 1.012066 -1.198789
H 0.850422 -0.281096 -1.952256
H 0.911762 -0.008207 2.331433
H -1.124510 1.574291 0.913940
H -1.216730 0.915820 2.594490
H -3.441573 0.905760 1.950055
H -3.389143 -2.050142 -0.140245
H -4.916770 -2.627857 0.570547
H -6.269813 -1.234485 -0.677971
H -5.540710 -1.345507 -2.709898
H -5.762342 0.911692 0.040772
H -5.522869 2.103997 -1.770524
H -2.892540 0.534273 -1.008214
H -4.117236 2.621355 0.521566
