43

C -4.682198 -1.554552 -0.312357
C -4.005643 -0.222336 -0.644523
O -4.118221 0.047023 -2.035404
C -3.465861 1.138741 -2.610102
C -2.466354 1.773765 -1.970588
C -1.965353 3.058453 -2.523806
O -1.243982 3.816664 -1.823059
O -2.309771 3.461087 -3.810200
C -1.935769 1.251061 -0.625765
C -0.372697 1.288467 -0.586343
C 0.295188 0.026930 -0.085631
C 1.591962 0.062212 0.445125
N 2.388301 1.139548 0.645109
C 3.526505 0.635603 1.168677
C 4.664094 1.344796 1.549997
C 5.749539 0.617793 2.073713
C 5.677689 -0.788069 2.201980
C 4.519660 -1.483263 1.808379
C 3.460437 -0.735956 1.296786
C 2.220498 -1.100708 0.827277
C 1.617825 -2.340761 0.683748
C 0.330133 -2.365823 0.128353
N -0.310506 -1.201049 -0.238161
C -1.658557 -1.272124 -0.811293
C -2.521559 -0.139803 -0.225696
H -4.348314 -2.354778 -1.005485
H -5.782616 -1.447743 -0.422507
H -4.461098 -1.851591 0.735218
H -4.557351 0.571186 -0.090590
H -3.803600 1.471833 -3.582044
H -2.304220 1.969197 0.141638
H -0.069999 2.146815 0.051208
H 0.044575 1.472614 -1.600325
H 2.186385 2.142553 0.436141
H 4.712214 2.420913 1.446476
H 6.646551 1.139846 2.379979
H 6.520225 -1.334424 2.605087
H 4.456436 -2.559551 1.903726
H 2.121587 -3.253615 0.974197
H -0.152632 -3.326037 -0.007246
H -1.596522 -1.182799 -1.918006
H -2.117195 -2.254327 -0.571985
H -2.479785 -0.227791 0.884517
