72

C 5.571234 -1.363361 0.316202
C 5.802462 -0.087138 1.090769
C 6.061466 -0.154326 2.573172
C 5.793133 1.126068 0.494456
C 5.507805 1.357090 -0.970004
C 3.998471 1.535090 -1.227091
O 3.540740 2.729541 -0.642611
C 3.718894 1.591927 -2.724429
C 4.304483 2.730354 -3.524046
C 2.986173 0.671396 -3.399950
C 2.244619 -0.502698 -2.810332
O 0.877425 -0.171617 -2.646868
C 0.551391 0.018109 -1.285180
O 0.595793 -1.223029 -0.605726
C 0.601827 -1.029103 0.802223
C 0.430381 -2.400874 1.472075
O -0.773755 -2.995906 1.074320
C -0.443090 0.045957 1.266447
O -0.990815 -0.224900 2.535413
C -1.534093 0.300727 0.198069
O -2.371609 -0.843285 0.099960
C -3.715132 -0.477172 -0.162765
O -4.293258 0.085173 1.002604
C -5.493961 0.766543 0.669667
C -6.114907 1.337517 1.952120
O -6.449875 0.306207 2.839456
C -6.501579 -0.136883 -0.116812
O -6.639914 0.371961 -1.421144
C -6.028501 -1.610936 -0.187021
O -6.304407 -2.272919 1.023880
C -4.530447 -1.725765 -0.592533
O -3.971884 -2.924006 -0.109406
C -0.880654 0.589397 -1.186801
O -0.880669 1.965824 -1.474080
H 6.365564 -1.489764 -0.449216
H 4.578410 -1.339216 -0.179253
H 5.593612 -2.253092 0.979464
H 7.050603 0.297306 2.802907
H 6.061340 -1.201294 2.945051
H 5.270360 0.404561 3.117401
H 5.967230 2.011480 1.101955
H 6.050440 2.274885 -1.281085
H 5.912307 0.524961 -1.586066
H 3.478073 0.681699 -0.752615
H 3.407642 2.551452 0.325657
H 4.806347 3.476532 -2.873210
H 5.046564 2.336154 -4.249110
H 3.498465 3.256618 -4.078327
H 2.852901 0.809650 -4.470496
H 2.292916 -1.322334 -3.556619
H 2.737958 -0.932565 -1.911859
H 1.253315 0.756258 -0.832271
H 1.612882 -0.669972 1.102232
H 1.277674 -3.055962 1.169428
H 0.464167 -2.296708 2.579466
H -0.829159 -3.858435 1.559296
H 0.113297 1.004074 1.372786
H -1.663718 -0.946116 2.442035
H -2.097836 1.204121 0.533580
H -3.738631 0.249365 -1.015837
H -5.235865 1.656186 0.048264
H -5.381882 2.020840 2.439994
H -7.024499 1.927971 1.694620
H -6.882628 0.740624 3.618840
H -7.501354 -0.115284 0.380172
H -7.478574 -0.009690 -1.796287
H -6.626918 -2.129603 -0.968192
H -5.730075 -1.881187 1.730427
H -4.484826 -1.774187 -1.702999
H -3.796730 -2.815642 0.861676
H -1.496602 0.094393 -1.970424
H -0.390518 2.426960 -0.742069
