54

C 1.107182 -3.090449 0.273733
C 1.451100 -2.005187 1.266997
C 0.519941 -1.479271 2.096016
C -0.954608 -1.803111 2.055882
O -1.702426 -0.619652 1.854802
C -1.759955 -0.264936 0.479790
O -1.625418 1.146628 0.360428
C -2.846104 1.811630 0.633250
C -2.555132 3.306344 0.830324
O -3.728921 4.010875 1.135597
C -3.856968 1.575147 -0.523322
O -5.162516 1.644215 -0.007747
C -3.627495 0.195722 -1.194348
O -2.714727 0.327336 -2.256114
C -3.075958 -0.803374 -0.160795
O -2.896595 -2.079683 -0.725209
C 2.883265 -1.511654 1.357092
C 3.030617 -0.015774 1.010191
C 2.466755 0.416292 -0.371987
O 2.418359 1.822367 -0.409119
C 3.261810 -0.106026 -1.611758
C 2.598505 0.433625 -2.898825
C 4.739157 0.347087 -1.574053
O 3.198025 -1.511322 -1.636942
H 0.656907 -3.957720 0.800941
H 0.396080 -2.702796 -0.484796
H 2.007835 -3.458333 -0.258730
H 0.825049 -0.737979 2.829189
H -1.225058 -2.591576 1.320716
H -1.229637 -2.213320 3.049410
H -0.902003 -0.679307 -0.097182
H -3.276769 1.435862 1.592509
H -1.807144 3.439041 1.645221
H -2.113404 3.729436 -0.097282
H -3.950965 3.797553 2.079493
H -3.726392 2.370067 -1.296558
H -5.768901 1.803908 -0.777648
H -4.593289 -0.203299 -1.585818
H -3.217806 0.710511 -3.021745
H -3.842396 -0.904937 0.639980
H -2.212100 -2.006335 -1.440107
H 3.242412 -1.667195 2.397781
H 3.561300 -2.110768 0.716422
H 4.097474 0.273483 1.100383
H 2.504745 0.568800 1.795762
H 1.426663 0.025132 -0.461019
H 1.609226 2.101737 0.094821
H 3.106426 0.029339 -3.800719
H 2.653800 1.542386 -2.943899
H 1.530910 0.127741 -2.940626
H 4.816350 1.442470 -1.406923
H 5.294137 -0.183996 -0.773339
H 5.244263 0.107519 -2.534497
H 3.724393 -1.834253 -2.415295
