43

C -0.672145 -3.194530 0.159959
C -0.700912 -1.987902 -0.431076
C 0.302591 -1.663772 -1.502918
C 1.613285 -1.175984 -0.885056
C 1.426699 -0.219532 0.330249
C 2.801954 0.373853 0.801762
C 3.740769 -0.710700 1.356529
C 3.530701 1.191818 -0.280858
C 0.309347 0.859702 0.070144
O 0.636565 2.041033 0.767540
C -1.119998 0.411021 0.559858
C -1.697566 -0.931358 0.010469
C -2.699507 -0.581174 -1.100538
C -2.806477 0.935574 -1.130382
C -2.236696 1.441439 0.201221
C -3.331965 1.455855 1.293101
O -1.732904 2.747799 0.048620
H 0.056788 -3.942224 -0.138267
H -1.370246 -3.453088 0.949923
H -0.094267 -0.880871 -2.181928
H 0.494731 -2.555271 -2.139842
H 2.189012 -2.069230 -0.561397
H 2.190087 -0.678836 -1.691584
H 1.075205 -0.839733 1.185466
H 2.609445 1.053114 1.660742
H 3.223211 -1.313628 2.132630
H 4.628451 -0.236655 1.827738
H 4.098847 -1.386626 0.552229
H 4.012811 0.529975 -1.030637
H 2.837020 1.874046 -0.810683
H 4.327139 1.807312 0.189165
H 0.256082 1.075046 -1.023826
H 0.880680 2.735300 0.101122
H -1.042384 0.320149 1.668246
H -2.302665 -1.359944 0.843298
H -2.398715 -0.962216 -2.100335
H -3.694295 -1.020359 -0.863998
H -3.856161 1.264875 -1.294910
H -2.186272 1.322053 -1.970107
H -2.903061 1.802767 2.257328
H -4.152038 2.150483 1.011377
H -3.771428 0.447362 1.443194
H -2.471722 3.323058 -0.283565
