51

C -5.762556 -0.855727 -1.244550
C -5.249298 -0.080917 -0.015031
C -6.070516 1.215710 0.133350
C -3.688781 0.148462 -0.062598
O -3.314319 0.733847 -1.289974
C -2.964291 -1.218691 0.054452
C -1.475652 -1.098018 0.262784
C -0.897206 -0.009988 0.808765
C 0.591046 -0.012186 1.038515
O 1.253491 -0.087197 -0.212403
C 2.361754 -0.973138 -0.158662
O 3.301424 -0.557264 0.828762
C 4.105513 0.506197 0.360693
C 4.799621 1.171667 1.555512
O 5.513019 0.221832 2.301147
C 5.131473 -0.032034 -0.668824
O 5.635549 1.013367 -1.464155
C 4.537697 -1.178333 -1.539174
O 4.949255 -2.420600 -1.026530
C 2.991592 -1.158073 -1.578023
O 2.520424 -0.209673 -2.505228
C -1.683775 1.250593 1.091868
C -3.204067 1.030612 1.121516
H -5.527569 -0.306442 -2.183565
H -6.865527 -0.992186 -1.182193
H -5.319387 -1.873542 -1.294226
H -5.483668 -0.698762 0.880682
H -5.891728 1.690009 1.121081
H -7.156795 0.987780 0.092884
H -5.840443 1.938636 -0.675980
H -3.666972 1.660388 -1.310221
H -3.376866 -1.797081 0.910740
H -3.119127 -1.817655 -0.867017
H -0.867916 -1.973550 0.047078
H 0.825999 -0.852203 1.734538
H 0.901639 0.926931 1.542706
H 1.998338 -1.984418 0.144115
H 3.473538 1.297807 -0.104474
H 4.026561 1.646030 2.200868
H 5.490205 1.966918 1.194069
H 5.908429 0.717380 3.064391
H 6.001444 -0.451954 -0.116371
H 4.896234 1.348339 -2.033286
H 4.909036 -1.084291 -2.586672
H 5.891305 -2.555304 -1.317031
H 2.660620 -2.147964 -1.966748
H 2.720296 0.696205 -2.156415
H -1.436343 1.998790 0.306767
H -1.368680 1.673015 2.070374
H -3.488411 0.552835 2.085108
H -3.675609 2.033843 1.088936
