54

C -3.608869 -2.544694 -0.736441
C -3.307050 -1.071977 -0.437572
C -1.859585 -0.772962 0.082968
C -1.736088 0.782496 0.244743
C -1.092634 1.494441 -0.953771
C -1.539969 2.862499 -1.303325
O -1.047224 3.450172 -2.306434
O -2.527382 3.491865 -0.537658
C -3.014820 4.794993 -0.833496
C 0.116105 1.044130 -1.378500
N 1.234310 1.879866 -1.075870
C 1.967300 1.148295 -0.108146
C 3.027395 1.648470 0.648655
C 3.695767 0.777879 1.535045
O 4.764523 1.200474 2.338639
C 5.267150 2.531958 2.369320
C 3.295402 -0.569072 1.610316
C 2.231737 -1.048454 0.830613
C 1.516957 -0.153709 0.023929
C 0.493435 -0.400076 -1.072646
C 1.179572 -1.202944 -2.177616
C 0.804293 -2.665376 -1.829983
N -0.437636 -2.645137 -1.015142
C -0.377339 -3.417584 0.251124
C -1.032861 -2.780596 1.495456
O -0.369902 -1.592453 1.868649
C -1.703930 -1.459243 1.448495
C -0.789914 -1.234336 -0.935443
H -3.456459 -3.173382 0.164579
H -4.670687 -2.642056 -1.045189
H -2.980546 -2.919536 -1.569472
H -3.502711 -0.486200 -1.363587
H -4.049410 -0.725132 0.316227
H -2.727819 1.227513 0.476083
H -1.100413 1.016261 1.128588
H -3.473134 4.810073 -1.845380
H -3.782784 5.075804 -0.085563
H -2.184665 5.529477 -0.787390
H 1.258486 2.921430 -1.149711
H 3.324666 2.681827 0.533136
H 5.655428 2.816819 1.368477
H 6.097771 2.588275 3.102232
H 4.466713 3.235218 2.683448
H 3.830413 -1.253139 2.257235
H 2.005534 -2.095675 0.852033
H 2.283295 -1.062836 -2.220920
H 0.755815 -0.931257 -3.170810
H 1.657550 -3.145513 -1.305024
H 0.619485 -3.237199 -2.763845
H 0.648274 -3.737427 0.518061
H -0.921073 -4.368572 0.070725
H -1.210386 -3.418742 2.386266
H -2.382151 -1.204493 2.290505
H -1.309934 -1.050464 -1.910994
