50

C 1.382243 -3.995398 0.981719
C 0.019669 -3.562874 0.514905
C -0.547181 -2.367127 0.800770
C -2.042779 -2.209546 0.567330
N -2.475041 -0.788059 0.506263
C -2.375260 -0.243516 -0.880194
O -3.173597 0.930247 -0.961184
C -3.808384 1.030947 -2.217753
C -0.895090 0.099652 -1.236230
C -0.105774 0.744220 -0.049324
C -1.107400 1.195470 0.958081
N -1.139211 2.462040 1.235240
C -0.148663 3.032193 0.394669
C 0.194012 4.380350 0.311815
C 1.208183 4.753234 -0.587277
C 1.853246 3.779748 -1.378437
C 1.489386 2.426322 -1.275986
C 0.480535 2.081446 -0.375496
C -1.919488 0.113844 1.583686
C -0.913525 -0.618198 2.499874
C 0.160236 -1.287505 1.606779
C 0.883679 -0.199273 0.724597
C 2.013459 -0.735264 -0.122039
O 1.788236 -1.472227 -1.119760
O 3.328721 -0.406679 0.221003
C 4.451305 -0.861864 -0.523993
H 1.412279 -4.025030 2.090812
H 1.593407 -5.018115 0.605341
H 2.174396 -3.321408 0.606862
H -0.567405 -4.308485 -0.015199
H -2.354936 -2.764785 -0.344821
H -2.577686 -2.702428 1.407128
H -2.730607 -1.019463 -1.603297
H -3.075183 0.985781 -3.052867
H -4.325617 2.010430 -2.275636
H -4.575967 0.234632 -2.333235
H -0.415675 -0.833040 -1.579209
H -0.884222 0.776279 -2.117947
H -0.306837 5.120101 0.922513
H 1.495239 5.793136 -0.673057
H 2.632521 4.076353 -2.068265
H 1.977878 1.673141 -1.880103
H -2.750015 0.544183 2.182694
H -0.434531 0.095412 3.208404
H -1.438864 -1.376780 3.121401
H 0.905782 -1.741045 2.294076
H 1.391065 0.454083 1.473518
H 4.485007 -1.972018 -0.520088
H 4.388701 -0.491218 -1.569109
H 5.379753 -0.471897 -0.058975
