66

C 5.489066 -3.496351 0.324583
C 6.708049 -2.773434 0.848424
C 8.022531 -3.508538 0.918138
C 6.673368 -1.487826 1.272385
C 5.466092 -0.573382 1.256424
C 5.043401 -0.133454 -0.169685
C 3.581124 -0.442518 -0.232656
C 2.811693 -0.143820 -1.291779
C 1.321736 -0.341536 -1.379344
O 0.645466 0.900979 -1.338179
C 0.568326 1.429561 -0.016562
O -0.751147 1.873560 0.254911
C -1.215112 2.814462 -0.707903
C -2.562258 3.377715 -0.228062
O -3.528016 2.335062 -0.093789
C -3.668962 1.547810 1.056960
O -2.984800 1.791816 2.087557
C -4.626215 0.430912 1.083092
C -5.380878 0.119759 0.020668
C -6.366166 -0.989954 0.004677
C -7.388268 -0.966562 -0.958396
C -8.334538 -1.992694 -1.016767
C -8.267320 -3.065950 -0.120331
O -9.210642 -4.090407 -0.173412
C -7.244035 -3.112408 0.833711
O -7.173716 -4.188455 1.717034
C -6.294719 -2.081324 0.894329
C -0.197488 3.969730 -0.968867
O 0.382909 3.794678 -2.238985
C 0.892542 3.971323 0.114500
O 1.830448 4.982002 -0.151932
C 1.586789 2.592438 0.166069
O 2.306309 2.451286 1.366513
C 3.225816 -1.088841 1.020955
O 2.097270 -1.547151 1.335023
O 4.325466 -1.187272 1.846090
H 4.733888 -3.602655 1.129960
H 5.050271 -2.954154 -0.535577
H 5.743703 -4.517606 -0.027035
H 7.932827 -4.553389 0.555423
H 8.776806 -2.987076 0.291539
H 8.382012 -3.537219 1.968466
H 7.592141 -1.048915 1.655039
H 5.710131 0.337023 1.846959
H 5.208476 0.957727 -0.305272
H 5.588402 -0.687010 -0.964753
H 3.279164 0.355495 -2.132332
H 0.907442 -1.068758 -0.653011
H 1.117977 -0.795166 -2.371241
H 0.786280 0.658317 0.757018
H -1.427599 2.282575 -1.663727
H -2.943877 4.096505 -0.984845
H -2.441822 3.927866 0.731596
H -4.717940 -0.122353 2.007573
H -5.306891 0.730446 -0.871543
H -7.460293 -0.146102 -1.662001
H -9.120450 -1.952592 -1.760178
H -9.962010 -4.084053 -0.852979
H -6.445935 -4.251864 2.419564
H -5.497621 -2.156702 1.621044
H -0.717253 4.957791 -0.940680
H 0.741269 4.675724 -2.522428
H 0.392655 4.178458 1.091088
H 2.339344 5.129025 0.687609
H 2.325144 2.549375 -0.664393
H 1.649639 2.458067 2.111658
