65

C 2.458518 4.651101 -2.667356
O 1.154625 4.107582 -2.687159
C 0.775580 3.588193 -1.421208
C -0.790763 3.580974 -1.288834
C -1.056757 2.841251 0.075858
C -2.553449 2.683986 0.338609
O -0.463234 3.652342 1.070871
C 0.923253 3.553348 0.795377
O 1.232675 4.365068 -0.325782
C 1.153275 2.119120 0.348827
C 2.190857 1.324278 1.170189
O 2.472745 0.063577 0.570462
C 3.329774 -0.876400 1.151743
O 3.826808 -0.658518 2.291324
C 3.646564 -2.127692 0.430149
C 4.356970 -3.163455 1.065438
C 4.642964 -4.348309 0.379755
C 4.226720 -4.510621 -0.943467
C 3.525576 -3.487332 -1.585197
C 3.237638 -2.300202 -0.904905
C 1.344710 2.149403 -1.160205
C 0.276890 1.050735 -1.286680
C -0.224787 1.503417 0.102606
O -0.556790 0.518455 1.073222
C -1.547854 -0.390991 0.618131
O -2.731651 -0.163570 1.372008
C -3.643827 -1.260019 1.435868
C -5.067054 -0.675731 1.475656
O -6.013421 -1.652449 1.818236
C -3.485437 -2.289529 0.282643
O -4.384382 -3.354503 0.460379
C -2.038492 -2.839742 0.233966
O -1.698426 -3.144454 -1.096124
C -1.027800 -1.827197 0.818329
O 0.232655 -1.978814 0.221090
H 3.197847 3.965878 -2.199448
H 2.461026 5.633021 -2.146953
H 2.783275 4.826786 -3.713232
H -1.166623 4.626840 -1.237130
H -1.295983 3.099096 -2.151328
H -2.725114 2.338469 1.378445
H -3.000796 1.966430 -0.380771
H -3.064030 3.663628 0.222998
H 1.525824 3.849492 1.680133
H 3.132179 1.912167 1.231091
H 1.801558 1.172945 2.200442
H 4.685085 -3.061636 2.092412
H 5.187016 -5.142091 0.875157
H 4.448714 -5.428722 -1.471792
H 3.205674 -3.613443 -2.611523
H 2.697169 -1.519448 -1.424411
H 2.368644 1.910941 -1.519118
H 0.733737 0.039962 -1.271452
H -0.432978 1.141978 -2.132015
H -1.796124 -0.255356 -0.461578
H -3.466912 -1.787200 2.400166
H -5.110210 0.161230 2.210348
H -5.327425 -0.253216 0.481619
H -5.914097 -1.815701 2.792242
H -3.714297 -1.761374 -0.674266
H -4.492327 -3.791070 -0.424708
H -1.969043 -3.765399 0.854152
H -2.158437 -3.993759 -1.323806
H -0.931556 -1.998143 1.917127
H 0.613529 -2.825606 0.573381
