59

C 3.412860 3.210899 -1.792112
C 2.256732 2.219577 -1.932691
C 1.636698 1.840033 -0.566940
C 2.584770 0.960121 0.310109
C 1.912437 -0.393042 0.665304
C 0.627807 -0.105178 1.477942
C -0.355381 0.816916 0.661421
C -0.560667 2.173784 1.341907
O -1.211201 3.072755 0.737461
O -0.078441 2.421171 2.632448
C -0.260630 3.666121 3.295091
C -1.739444 0.160056 0.582183
N -2.682731 0.372006 1.541113
C -3.737068 -0.392109 1.233277
C -4.920580 -0.520507 1.959851
C -5.883956 -1.430976 1.493285
C -5.638666 -2.193942 0.332358
C -4.430242 -2.048870 -0.372509
C -3.497470 -1.119719 0.102619
C -2.224726 -0.789759 -0.344861
C -1.503267 -1.566768 -1.412212
C -0.478162 -0.776911 -2.226946
N 0.614373 -0.186597 -1.437988
C 1.460328 -1.113565 -0.635009
C 2.636308 -1.630504 -1.492194
C 3.463275 -2.654457 -0.759670
C 2.960389 -4.052576 -0.559011
O 4.548703 -2.336951 -0.297744
C 0.281421 1.084644 -0.753604
H 4.245646 2.770592 -1.206118
H 3.796984 3.475434 -2.799749
H 3.066274 4.140501 -1.292745
H 1.478288 2.697095 -2.566895
H 2.613159 1.317517 -2.470435
H 1.452976 2.799045 -0.036225
H 2.824551 1.503151 1.250677
H 3.556157 0.768805 -0.190333
H 2.600251 -1.026434 1.266249
H 0.143046 -1.075399 1.729671
H 0.925648 0.321859 2.456385
H 0.209391 3.616788 4.298797
H -1.344497 3.877526 3.414815
H 0.219600 4.480340 2.711768
H -2.604211 0.977733 2.388578
H -5.090280 0.056454 2.859753
H -6.813942 -1.554358 2.032775
H -6.381797 -2.900330 -0.014042
H -4.241204 -2.646821 -1.253296
H -1.071170 -2.485389 -0.971000
H -2.252835 -1.927779 -2.147123
H -1.002582 0.015204 -2.805364
H -0.038121 -1.460734 -2.983603
H 0.888591 -2.007273 -0.321492
H 3.285323 -0.796819 -1.826099
H 2.236203 -2.103138 -2.414279
H 1.968713 -4.191308 -1.039159
H 3.676418 -4.773334 -1.006189
H 2.863344 -4.259696 0.527284
H -0.403394 1.705116 -1.375484
