131

C -7.091571 -1.717270 -3.165563
C -6.932140 -0.643036 -2.130868
C -6.961232 -0.791953 -0.777286
C -7.168842 0.460091 0.077200
O -8.095674 1.321812 -0.565636
C -8.195250 2.572652 0.104179
O -9.070960 2.499231 1.222192
C -10.387256 2.144811 0.830339
C -11.229339 1.839376 2.078913
O -11.127521 2.875765 3.014159
C -11.022392 3.262778 -0.034935
O -11.270741 4.429518 0.713717
C -10.131705 3.586471 -1.258265
O -10.342397 2.662951 -2.300967
C -8.629187 3.676190 -0.888029
O -8.350658 4.932330 -0.320300
O -7.682614 0.113047 1.375838
C -8.430789 -1.050055 1.603597
C -8.167220 -2.156140 0.893468
C -9.035744 -3.348748 1.045704
O -9.108760 -4.210020 0.128556
O -9.823132 -3.485668 2.193926
C -10.712845 -4.575698 2.393755
C -6.913746 -2.096449 0.032497
C -6.484082 -3.421547 -0.644128
C -5.069947 -3.402171 -1.162147
O -4.677090 -4.347099 -1.897986
O -4.190590 -2.371378 -0.805116
C -2.847157 -2.309595 -1.275293
C -2.110953 -1.119450 -0.629351
C -2.001639 -1.283069 0.901064
C -0.779715 -0.779532 -1.381240
C 0.085329 0.315401 -0.758902
C 1.480713 0.171499 -1.389155
O 2.458532 0.061989 -0.353558
C 3.836555 0.089056 -0.582905
O 4.293062 0.366737 -1.728293
C 4.759192 -0.297598 0.539936
C 6.156693 0.380179 0.481157
C 6.176761 1.905944 0.582994
C 4.972861 2.772799 0.583439
O 3.912966 2.395656 1.152682
O 5.038854 4.044703 0.001774
C 3.936977 4.943663 -0.012749
C 7.384124 2.489772 0.586244
O 8.539788 1.711318 0.702902
C 8.567639 0.466149 1.418324
O 9.456667 -0.438481 0.785424
C 10.802119 -0.011361 0.909171
O 11.068709 0.954892 -0.095320
C 12.368076 1.500880 0.066988
C 12.538148 2.657876 -0.930312
O 11.577394 3.651046 -0.689524
C 13.434729 0.404499 -0.176055
O 14.738484 0.908477 -0.016384
C 13.190188 -0.784864 0.780336
O 14.054633 -1.858140 0.492640
C 11.717456 -1.234332 0.712666
O 11.451752 -2.179078 1.717213
C 7.185739 -0.170461 1.473508
C 6.917639 -1.172460 2.352385
C 7.907114 -1.681152 3.362370
C 1.448995 -1.120577 -2.237359
C 1.383762 -0.802421 -3.741003
C 0.204742 -1.905593 -1.761930
C 0.587816 -2.856979 -0.601576
O 1.553504 -3.785828 -1.019780
H -6.194922 -2.355367 -3.231387
H -8.004865 -2.314440 -2.965605
H -7.222225 -1.242578 -4.158811
H -6.927729 0.367091 -2.531030
H -6.175871 0.954611 0.187384
H -7.197671 2.894545 0.486554
H -10.381343 1.195337 0.245017
H -12.294217 1.686895 1.787330
H -10.859352 0.895658 2.537780
H -11.722643 2.626264 3.768974
H -12.002510 2.899002 -0.410743
H -10.420927 4.708557 1.139188
H -10.448640 4.577053 -1.655626
H -10.118761 1.758612 -1.971647
H -8.019031 3.561444 -1.814104
H -8.343574 5.589810 -1.062993
H -9.213106 -1.030517 2.351757
H -11.486260 -4.582503 1.594797
H -10.150032 -5.533977 2.376894
H -11.210075 -4.467298 3.379166
H -6.099941 -1.928478 0.777447
H -6.515971 -4.229111 0.120287
H -7.184172 -3.720672 -1.443900
H -2.863703 -2.190354 -2.379771
H -2.337853 -3.264876 -1.034741
H -2.775321 -0.237409 -0.779734
H -1.257594 -2.037781 1.201735
H -2.981258 -1.584045 1.327190
H -1.744728 -0.314049 1.375781
H -1.128934 -0.360797 -2.353894
H -0.344541 1.321245 -0.960891
H 0.168033 0.188263 0.339920
H 1.702049 1.071836 -2.008038
H 4.271909 -0.085849 1.517424
H 4.884868 -1.396048 0.448731
H 6.564948 0.129346 -0.523737
H 3.598424 5.142780 1.028076
H 3.102272 4.507513 -0.603637
H 4.252529 5.900771 -0.477598
H 7.491353 3.564083 0.511827
H 8.878229 0.682614 2.469643
H 10.997912 0.403137 1.932611
H 12.488174 1.929029 1.091482
H 13.542256 3.113437 -0.808115
H 12.459898 2.283990 -1.976795
H 10.745362 3.365794 -1.150217
H 13.332561 0.044702 -1.223532
H 14.819726 1.243476 0.916438
H 13.401417 -0.454595 1.821927
H 13.931556 -2.102752 -0.461597
H 11.508125 -1.673550 -0.292475
H 11.854537 -3.034262 1.414982
H 5.945773 -1.647397 2.381191
H 7.993228 -0.952375 4.201028
H 7.553211 -2.652842 3.775802
H 8.911144 -1.842368 2.906973
H 2.379552 -1.709470 -2.088194
H 2.331053 -0.325211 -4.065709
H 1.252528 -1.736251 -4.324629
H 0.548563 -0.111823 -3.973850
H -0.222961 -2.519810 -2.588391
H -0.293421 -3.409889 -0.231291
H 1.006765 -2.273779 0.246358
H 1.081375 -4.445726 -1.593998
