44

C -2.978627 -2.592215 -1.434517
O -1.975034 -2.842923 -0.474167
C -1.899853 -1.774198 0.456839
O -1.339909 -2.250852 1.666098
C -2.286645 -3.024740 2.371257
C -0.979280 -0.703693 -0.088166
C 0.363247 -1.013006 -0.384235
N 1.214546 -0.060278 -0.885024
C 2.615917 -0.405997 -1.152032
C 3.465350 -0.176284 0.101944
C 4.932820 -0.530593 -0.152879
C 5.747343 -0.305315 1.081362
O 6.275082 0.817562 1.296096
O 5.882866 -1.320444 2.019854
C 0.784513 1.223606 -1.085919
C -0.538067 1.558365 -0.799341
C -1.407967 0.613078 -0.323546
C -2.762403 1.185227 -0.103304
C -2.664390 2.619620 -0.652971
C -1.172780 2.894019 -0.951865
C -0.569888 3.903269 0.031183
H -2.797974 -1.635474 -1.972803
H -2.961084 -3.408253 -2.185496
H -3.986163 -2.589221 -0.963390
H -2.904314 -1.328987 0.666807
H -3.142042 -2.398517 2.707974
H -1.798951 -3.439288 3.277185
H -2.649336 -3.883069 1.763461
H 0.723397 -2.020737 -0.209028
H 2.694286 -1.469911 -1.469916
H 3.009767 0.210408 -1.991159
H 3.388841 0.891861 0.403447
H 3.070457 -0.805429 0.930156
H 5.335204 0.094711 -0.979818
H 5.016552 -1.597929 -0.451995
H 1.460851 1.982828 -1.460841
H -2.992550 1.198572 0.983903
H -3.532107 0.604108 -0.655536
H -3.247094 2.691894 -1.597775
H -3.095437 3.345441 0.071587
H -1.044673 3.260203 -1.994318
H -0.674584 3.544228 1.078158
H 0.507481 4.057360 -0.190650
H -1.087369 4.880993 -0.067678
