50

C 0.911481 -3.326423 0.942081
C 0.945751 -1.830171 1.116967
C 1.456984 -1.013830 0.176882
C 2.023850 -1.491709 -1.107785
C 2.409210 -0.679818 -2.102689
C 2.322155 0.824283 -2.067292
C 3.462317 1.454171 -1.239847
C 4.828355 1.257015 -1.912031
C 3.193670 2.918002 -1.027101
O 3.197470 3.716955 -2.002845
O 2.915345 3.389564 0.251925
C 0.373813 -1.223513 2.379208
O -0.757479 -0.416179 2.104403
C -1.892333 -1.202770 1.748849
O -1.986936 -1.337328 0.339647
C -1.989442 -0.077623 -0.327457
C -2.348407 -0.327357 -1.802819
O -1.499239 -1.296298 -2.357137
C -2.928223 0.971267 0.356411
O -3.600021 1.768291 -0.588178
C -3.938136 0.276191 1.281281
O -4.797035 -0.528610 0.512050
C -3.195250 -0.584569 2.327462
O -2.909929 0.198780 3.458814
H 1.945484 -3.720686 0.849427
H 0.430018 -3.825910 1.808557
H 0.328163 -3.587494 0.033698
H 1.433179 0.050404 0.371253
H 2.122577 -2.555481 -1.280230
H 2.779454 -1.133899 -3.014115
H 1.328557 1.131129 -1.672691
H 2.375029 1.204568 -3.111162
H 3.507170 0.967669 -0.241597
H 4.834986 1.697044 -2.932440
H 5.068513 0.175541 -1.987783
H 5.623924 1.742942 -1.307675
H 2.724153 4.371184 0.413849
H 0.144606 -1.992371 3.151116
H 1.152837 -0.578238 2.838275
H -1.834184 -2.232608 2.174680
H -0.957619 0.336718 -0.326925
H -2.273055 0.616307 -2.390139
H -3.393692 -0.695148 -1.874101
H -0.628923 -0.849358 -2.525223
H -2.287033 1.631921 0.988441
H -3.938283 2.566859 -0.104706
H -4.536625 1.060819 1.802956
H -5.611840 -0.684030 1.057557
H -3.881014 -1.410433 2.633223
H -2.654353 -0.429454 4.184956
