48

C -1.797747 -2.718275 2.718333
C -0.848428 -2.771443 1.521696
C -0.500845 -1.369487 0.958358
C -1.698741 -0.527516 0.482474
C -2.422526 -1.252050 -0.654140
C -1.478744 -1.536656 -1.825272
N -0.142493 -2.085936 -1.435254
C 0.817381 -1.718356 -2.486541
C 1.282979 -0.292923 -2.180084
C 1.012673 -0.110823 -0.674692
C 0.052645 1.044737 -0.380088
C -1.223343 0.863750 0.049327
C -2.145702 2.015782 0.188289
O -3.173665 1.917495 0.913307
O -1.904121 3.194955 -0.525109
C -2.756391 4.330596 -0.443002
N 0.796700 2.208017 0.004656
C 2.095286 1.729040 0.314101
C 3.117522 2.461912 0.916886
C 4.332465 1.812914 1.189962
C 4.502515 0.454090 0.859972
C 3.456395 -0.266847 0.261429
C 2.245637 0.390235 0.020810
C 0.468734 -1.477268 -0.228429
H -2.819216 -2.429098 2.395355
H -1.859118 -3.723596 3.185849
H -1.427911 -1.996978 3.477701
H -1.276421 -3.430972 0.738132
H 0.093706 -3.253987 1.862614
H 0.013905 -0.814672 1.776886
H -2.403542 -0.411239 1.331997
H -2.868802 -2.200840 -0.290253
H -3.270608 -0.626989 -1.010749
H -1.975455 -2.266667 -2.499977
H -1.392055 -0.588705 -2.404104
H 1.685943 -2.413216 -2.442210
H 0.384971 -1.797958 -3.510309
H 2.358186 -0.186317 -2.447341
H 0.706393 0.437802 -2.789109
H -3.778004 4.065036 -0.788267
H -2.354842 5.135041 -1.092647
H -2.797337 4.699843 0.603616
H 0.409335 3.101649 0.380112
H 2.978917 3.505452 1.167878
H 5.143125 2.360481 1.652773
H 5.446306 -0.035258 1.062384
H 3.592522 -1.304011 -0.014704
H 1.321817 -2.120741 0.087383
