46

C -1.111405 0.783901 2.598870
C -0.639337 1.547753 1.352589
C -1.129387 0.962287 -0.014638
C -2.694521 1.000117 -0.017335
C -3.320689 0.231976 -1.188045
C -2.913375 -1.241457 -1.151925
N -1.493946 -1.410995 -0.820871
C -0.806285 -2.573614 -0.879567
C -1.342826 -3.847234 -1.388457
O -0.624727 -4.881557 -1.405608
C 0.458532 -2.406334 -0.358719
C 0.542280 -1.091440 0.051147
C -0.688859 -0.489187 -0.234413
C 1.748748 -0.520695 0.673134
C 1.960757 -0.696124 2.049655
C 3.152959 -0.269558 2.639922
C 4.158020 0.298995 1.854848
C 3.972681 0.442681 0.477684
C 2.768625 0.044915 -0.118631
N 2.608610 0.179908 -1.534619
C 1.541432 0.934583 -2.120215
O 1.207571 0.703162 -3.313059
C 0.883465 2.066318 -1.376348
C -0.635118 1.871279 -1.194527
H -1.073716 -0.313553 2.443811
H -2.145707 1.079140 2.871881
H -0.456952 1.038793 3.459274
H 0.461863 1.595030 1.397086
H -0.985953 2.600522 1.445930
H -3.103490 0.541350 0.906413
H -3.057523 2.051280 -0.037612
H -4.427886 0.299363 -1.114083
H -3.043307 0.680451 -2.162445
H -3.523877 -1.769335 -0.387228
H -3.127962 -1.692612 -2.144413
H -2.359387 -3.909733 -1.750647
H 1.231011 -3.159820 -0.271049
H 1.209083 -1.175803 2.663492
H 3.305441 -0.397642 3.703744
H 5.086083 0.617285 2.311785
H 4.762299 0.871752 -0.126263
H 3.323653 -0.251140 -2.162616
H 1.397579 2.283237 -0.422679
H 1.033365 2.979145 -1.992892
H -1.037083 1.507327 -2.161207
H -1.070738 2.885281 -1.051150
