53

C -1.417806 1.908098 2.156985
C -1.177179 0.500151 1.594676
C -1.509411 0.297709 0.072646
C -1.026038 1.497922 -0.806010
C 0.467663 1.710368 -0.708583
C 1.005277 3.091994 -0.672239
O 2.201064 3.320243 -1.004687
O 0.166095 4.153450 -0.318170
C 0.612192 5.503066 -0.270602
C 1.265193 0.626712 -0.643029
N 2.548206 0.643745 -0.005609
C 2.738844 -0.672775 0.479214
C 3.789099 -1.103908 1.288908
C 3.805492 -2.447978 1.707333
O 4.836481 -2.925178 2.513068
C 2.774080 -3.322415 1.309953
C 1.722457 -2.862036 0.501535
C 1.715564 -1.518806 0.112183
C 0.744983 -0.795382 -0.784946
C 0.857635 -1.328433 -2.223721
C -0.408309 -2.147176 -2.413212
N -1.412312 -1.443030 -1.630156
C -2.635381 -2.197091 -1.320193
C -3.468397 -1.437644 -0.249633
Cl -5.216079 -1.613089 -0.589248
C -3.068175 0.070248 -0.178920
O -3.874750 0.773192 0.734352
C -0.748526 -0.979135 -0.410966
H -2.414285 2.307368 1.889589
H -1.343098 1.876606 3.264333
H -0.641282 2.609101 1.789925
H -0.107546 0.264304 1.785467
H -1.752979 -0.233204 2.199073
H -1.263155 1.307354 -1.875846
H -1.585151 2.413736 -0.521930
H 0.965039 5.822514 -1.274024
H -0.230711 6.154512 0.038515
H 1.435638 5.605133 0.467620
H 3.067731 1.475742 0.350462
H 4.572202 -0.417963 1.585375
H 5.593015 -2.322859 2.815905
H 2.791581 -4.357458 1.626318
H 0.936726 -3.536345 0.187893
H 1.765203 -1.947136 -2.402583
H 0.852132 -0.486644 -2.952033
H -0.254591 -3.182137 -2.031795
H -0.704071 -2.179119 -3.483622
H -3.221959 -2.306214 -2.257779
H -2.391056 -3.216908 -0.946216
H -3.276071 -1.901093 0.742914
H -3.322556 0.477735 -1.182893
H -3.937672 0.238475 1.567634
H -0.821050 -1.768326 0.376769
